c PROBLEM_030_070_16  vars=30  clausulas=70  k=2
p cnf 30 70
-25 4 0
-8 19 0
12 -1 0
14 17 0
-9 25 0
19 -17 0
22 15 0
-13 -26 0
14 -26 0
21 12 0
25 -5 0
-11 5 0
24 27 0
-22 -16 0
27 -9 0
25 -7 0
-28 26 0
-20 10 0
26 15 0
-23 -15 0
9 20 0
-9 2 0
-3 -29 0
12 -2 0
5 -1 0
5 -16 0
21 -5 0
-8 -16 0
-22 -4 0
-17 8 0
-28 -3 0
-8 -12 0
-30 -10 0
-15 9 0
-5 -27 0
-27 21 0
7 1 0
-12 -4 0
-6 1 0
1 -8 0
-30 -14 0
25 20 0
-30 -11 0
-3 7 0
10 -25 0
22 -13 0
-4 16 0
-6 27 0
1 -11 0
-5 -18 0
13 -5 0
3 -20 0
22 9 0
-24 -28 0
-12 21 0
26 -5 0
-13 9 0
4 -11 0
7 19 0
18 15 0
27 25 0
25 15 0
-27 -24 0
30 21 0
3 -18 0
-25 -23 0
-23 6 0
-17 -22 0
18 -9 0
11 28 0
