c PROBLEM_030_070_30  vars=30  clausulas=70  k=2
p cnf 30 70
-30 4 0
14 -26 0
25 17 0
30 10 0
14 17 0
-2 18 0
10 9 0
9 -20 0
-22 -5 0
-17 15 0
-4 -9 0
-1 22 0
-19 -14 0
21 -26 0
29 -12 0
-17 12 0
7 22 0
-30 -8 0
28 22 0
13 20 0
-13 30 0
28 -27 0
1 11 0
-19 1 0
-1 29 0
-25 11 0
6 1 0
-1 -23 0
2 20 0
8 -16 0
12 8 0
6 26 0
-1 -30 0
-14 -21 0
-11 -5 0
24 -28 0
-23 -9 0
7 -18 0
-24 -17 0
-29 -11 0
21 28 0
-20 22 0
-11 -13 0
-24 -12 0
-8 25 0
20 -30 0
4 18 0
4 22 0
-2 15 0
-21 24 0
25 8 0
-14 -22 0
-6 16 0
-15 6 0
-15 28 0
-17 22 0
-26 22 0
-11 9 0
30 -5 0
17 28 0
-20 7 0
4 5 0
15 -20 0
24 26 0
-16 -19 0
-4 -30 0
29 -12 0
-7 4 0
-21 -3 0
-11 13 0
