c PROBLEM_030_070_18  vars=30  clausulas=70  k=2
p cnf 30 70
16 -20 0
-6 28 0
27 8 0
-5 28 0
-3 29 0
-11 -17 0
10 25 0
-12 15 0
14 15 0
-12 30 0
10 -29 0
22 -21 0
19 -15 0
-1 -11 0
-10 27 0
-11 14 0
30 -7 0
5 -26 0
3 -9 0
27 15 0
-8 -14 0
13 30 0
20 25 0
-25 -11 0
2 6 0
-1 -16 0
-25 -13 0
-17 20 0
-4 5 0
27 1 0
6 30 0
30 7 0
-18 -27 0
10 17 0
1 24 0
-10 23 0
13 28 0
9 -20 0
-27 30 0
-15 -12 0
24 23 0
-9 -14 0
7 -11 0
13 29 0
-22 17 0
6 -17 0
6 8 0
8 -25 0
10 -24 0
18 25 0
2 26 0
28 29 0
-30 27 0
-24 22 0
-10 2 0
7 -9 0
10 26 0
1 18 0
16 -2 0
29 -4 0
21 8 0
20 -10 0
-6 -8 0
-15 3 0
17 2 0
-9 -14 0
-3 -13 0
-28 -19 0
-21 23 0
-4 8 0
