c PROBLEM_030_070_33  vars=30  clausulas=70  k=2
p cnf 30 70
13 -24 0
-12 14 0
-12 20 0
29 19 0
1 -8 0
22 -27 0
-5 -7 0
21 20 0
24 -28 0
-15 -22 0
24 13 0
19 -3 0
-5 -7 0
15 -5 0
16 -5 0
25 18 0
-4 23 0
6 12 0
30 6 0
24 18 0
10 17 0
6 11 0
7 4 0
19 -23 0
7 -27 0
19 -12 0
8 -19 0
-2 10 0
20 -22 0
-6 -15 0
29 1 0
2 24 0
27 -14 0
13 29 0
-26 -17 0
-21 3 0
-12 3 0
22 -1 0
-20 16 0
-15 -5 0
30 28 0
29 27 0
5 -18 0
12 29 0
19 13 0
-14 25 0
9 -16 0
11 9 0
-22 27 0
21 5 0
14 23 0
-19 22 0
-2 14 0
8 10 0
-1 -8 0
-25 -4 0
1 -11 0
22 -26 0
-27 -3 0
-13 -3 0
12 -3 0
-28 -5 0
-16 26 0
-1 28 0
-9 -10 0
1 25 0
11 -13 0
-1 -30 0
6 29 0
8 -18 0
