c PROBLEM_030_070_34  vars=30  clausulas=70  k=2
p cnf 30 70
-22 17 0
8 -20 0
-12 9 0
-10 -26 0
27 -12 0
9 -30 0
18 -4 0
15 14 0
2 -25 0
-18 19 0
-12 5 0
-30 8 0
29 -24 0
18 14 0
27 -14 0
-25 5 0
19 -22 0
2 -24 0
29 16 0
1 29 0
-6 27 0
-13 -18 0
6 7 0
-3 10 0
-6 26 0
-3 -14 0
-23 -25 0
30 -7 0
-22 2 0
-3 -6 0
-8 -16 0
29 -9 0
12 2 0
9 -23 0
28 25 0
-21 15 0
-17 11 0
13 -4 0
-25 16 0
16 -28 0
5 30 0
4 6 0
-26 1 0
23 9 0
17 1 0
-16 -27 0
9 -12 0
-21 6 0
3 -18 0
-15 3 0
25 15 0
-9 -4 0
-25 28 0
23 -10 0
23 -15 0
-21 29 0
-23 25 0
-17 -22 0
-5 9 0
-22 12 0
29 12 0
-4 -11 0
-8 24 0
22 21 0
-19 17 0
-28 23 0
4 -11 0
-7 -10 0
12 24 0
-1 21 0
