c PROBLEM_030_070_44  vars=30  clausulas=70  k=2
p cnf 30 70
11 -14 0
-23 30 0
-24 -3 0
7 24 0
8 -4 0
16 15 0
9 17 0
5 21 0
-18 -9 0
16 22 0
-13 7 0
16 26 0
-20 9 0
-3 -13 0
-29 -27 0
18 -1 0
22 -5 0
-22 -30 0
-1 -30 0
21 -14 0
25 -8 0
-17 -19 0
-10 13 0
-26 22 0
20 -7 0
-21 27 0
-14 -5 0
-27 17 0
-6 26 0
-22 -1 0
21 5 0
8 -13 0
22 -23 0
-3 18 0
-3 17 0
28 -23 0
6 -28 0
14 -3 0
-5 -8 0
29 -23 0
11 10 0
26 2 0
-6 -18 0
-15 -3 0
-6 29 0
10 2 0
9 -10 0
29 -21 0
-14 1 0
27 -18 0
-12 29 0
14 25 0
-22 18 0
-23 28 0
-24 26 0
24 7 0
27 -12 0
30 22 0
-15 -16 0
14 -1 0
-9 7 0
-11 -23 0
10 20 0
-6 4 0
19 -14 0
15 -27 0
8 4 0
13 -17 0
12 17 0
17 -24 0
