c PROBLEM_030_070_09  vars=30  clausulas=70  k=2
p cnf 30 70
-24 -12 0
-28 12 0
-8 24 0
1 19 0
3 -27 0
11 -27 0
17 15 0
-14 13 0
-24 -2 0
-9 -25 0
-29 -30 0
-22 -7 0
18 -9 0
30 -12 0
-23 19 0
-21 26 0
-4 28 0
-2 18 0
-15 -7 0
-14 -19 0
-3 -15 0
7 -2 0
-8 27 0
3 8 0
25 19 0
16 -9 0
-21 -10 0
-22 -18 0
-22 11 0
-19 30 0
25 3 0
-3 -12 0
-11 8 0
-20 11 0
-23 27 0
-6 -25 0
-1 -13 0
-12 26 0
26 14 0
-18 -28 0
-26 -4 0
30 29 0
21 4 0
23 -25 0
-25 23 0
-10 -13 0
-4 11 0
6 -25 0
29 12 0
10 18 0
4 -17 0
-11 9 0
-8 6 0
-2 19 0
-15 23 0
-6 26 0
-15 25 0
13 -29 0
-25 -8 0
-26 -10 0
-5 -26 0
-17 26 0
10 -26 0
-6 1 0
-1 28 0
-14 -24 0
-6 -25 0
-20 21 0
-7 -30 0
12 -4 0
