c PROBLEM_030_070_43  vars=30  clausulas=70  k=2
p cnf 30 70
27 7 0
5 10 0
-19 26 0
9 -23 0
29 18 0
20 -22 0
2 -9 0
-14 -19 0
20 -22 0
-8 -11 0
24 27 0
22 26 0
24 6 0
-23 3 0
15 -27 0
8 -5 0
20 -15 0
-26 -10 0
-2 29 0
28 22 0
-29 24 0
-23 9 0
23 -27 0
-13 -25 0
21 -27 0
21 2 0
-2 -14 0
-20 19 0
15 6 0
-16 12 0
-16 18 0
10 25 0
-7 -19 0
-3 28 0
-6 24 0
-23 11 0
8 -2 0
-11 16 0
-16 -10 0
-17 -30 0
-16 2 0
-4 14 0
6 -4 0
-21 24 0
-4 21 0
-14 -30 0
-16 -5 0
-19 6 0
27 -8 0
11 1 0
-21 -27 0
-2 -18 0
-12 -29 0
7 21 0
1 15 0
-5 -20 0
-11 2 0
7 -16 0
-13 -17 0
-16 -24 0
-29 -9 0
22 12 0
-14 -5 0
-28 -26 0
-10 -9 0
28 25 0
-1 -3 0
16 19 0
-8 18 0
-21 -12 0
