c PROBLEM_030_070_50  vars=30  clausulas=70  k=2
p cnf 30 70
17 13 0
4 -7 0
-4 -19 0
19 -9 0
21 3 0
2 25 0
15 13 0
26 -8 0
-14 27 0
19 29 0
6 -20 0
15 18 0
-4 13 0
24 11 0
-7 -4 0
21 17 0
-11 10 0
-20 25 0
23 -4 0
8 26 0
14 -12 0
25 -27 0
18 -6 0
4 28 0
2 17 0
-23 14 0
-5 30 0
-27 -23 0
-25 3 0
-14 11 0
7 -1 0
-1 -16 0
-10 26 0
-6 -22 0
12 -21 0
-7 -2 0
28 -9 0
-10 21 0
-20 16 0
1 25 0
24 -1 0
7 -3 0
-29 16 0
2 -22 0
-11 -25 0
-17 -29 0
-12 -15 0
18 -8 0
18 -16 0
24 13 0
11 -7 0
-27 4 0
-1 -29 0
22 -7 0
4 3 0
-10 -11 0
-2 4 0
-21 -16 0
-7 -24 0
-20 18 0
2 6 0
30 -19 0
-20 16 0
1 20 0
-13 29 0
-2 11 0
-18 10 0
1 -2 0
19 -16 0
23 21 0
