c PROBLEM_030_070_41  vars=30  clausulas=70  k=2
p cnf 30 70
-11 14 0
-21 -15 0
10 23 0
-9 6 0
-27 -24 0
9 29 0
24 22 0
3 20 0
23 4 0
-30 -3 0
-19 21 0
23 24 0
17 29 0
-23 9 0
13 -25 0
21 -7 0
23 4 0
-27 9 0
27 4 0
30 -24 0
-8 -26 0
-17 -14 0
-12 14 0
22 -23 0
4 25 0
-14 -24 0
22 -19 0
14 19 0
-1 -6 0
-16 28 0
-27 12 0
25 -21 0
7 16 0
-1 -13 0
25 29 0
10 -9 0
-2 -30 0
-1 11 0
29 -27 0
13 -14 0
-8 25 0
-17 8 0
1 -29 0
18 -11 0
24 -12 0
-24 -9 0
27 19 0
-16 20 0
7 -15 0
-27 26 0
-20 -17 0
-2 13 0
-19 -10 0
-20 -5 0
-19 3 0
26 1 0
-9 10 0
-19 -27 0
-29 -15 0
-22 17 0
-25 -22 0
17 -24 0
-16 28 0
-3 -26 0
-10 -28 0
28 12 0
17 -1 0
23 19 0
-27 5 0
-14 -11 0
