c PROBLEM_030_070_20  vars=30  clausulas=70  k=2
p cnf 30 70
-13 -24 0
21 18 0
20 27 0
8 -7 0
-17 26 0
-24 28 0
-5 21 0
12 -19 0
26 -14 0
30 -26 0
22 -15 0
1 -30 0
-29 5 0
-20 -11 0
11 9 0
-25 -24 0
3 -24 0
-25 7 0
19 -4 0
18 -16 0
13 -17 0
-20 -6 0
-24 14 0
-23 6 0
29 26 0
-30 -13 0
-17 -13 0
1 29 0
29 13 0
-30 8 0
-13 1 0
-28 27 0
-2 27 0
-13 -10 0
-5 20 0
21 14 0
29 17 0
22 23 0
-12 1 0
5 -4 0
28 -17 0
20 -23 0
22 -18 0
23 4 0
-2 15 0
-30 -27 0
-16 -8 0
-13 30 0
-28 24 0
24 -5 0
1 -6 0
-24 28 0
14 23 0
-28 -16 0
14 11 0
25 -24 0
-14 -2 0
-16 -8 0
-5 2 0
-11 4 0
2 1 0
-19 -15 0
-3 -8 0
-17 -21 0
27 4 0
4 8 0
5 -30 0
21 29 0
-9 12 0
6 -22 0
