c PROBLEM_030_070_25  vars=30  clausulas=70  k=2
p cnf 30 70
28 5 0
24 -29 0
5 -7 0
23 -22 0
-21 5 0
26 7 0
-9 23 0
23 11 0
-18 -1 0
16 14 0
13 -25 0
21 -20 0
16 24 0
10 -11 0
-2 -21 0
2 28 0
-2 15 0
10 -26 0
23 29 0
7 -30 0
-2 16 0
-27 12 0
16 25 0
-20 4 0
12 -6 0
-9 8 0
-12 14 0
5 14 0
-19 -16 0
-26 15 0
21 -28 0
-20 8 0
6 13 0
-6 -2 0
26 29 0
-3 -25 0
14 -29 0
-18 -4 0
-2 -30 0
-11 20 0
2 -1 0
23 16 0
23 19 0
10 -13 0
30 -20 0
1 22 0
24 26 0
28 -17 0
30 13 0
23 -3 0
-17 10 0
8 -15 0
-9 -21 0
-10 -24 0
9 21 0
30 23 0
10 -28 0
-24 -27 0
-3 -19 0
20 -13 0
-6 5 0
-5 -9 0
27 -23 0
-25 -22 0
23 -11 0
-13 25 0
-9 22 0
5 16 0
-22 30 0
-18 -8 0
