c PROBLEM_030_070_21  vars=30  clausulas=70  k=2
p cnf 30 70
-17 -1 0
-29 19 0
9 4 0
18 -24 0
-26 9 0
28 -1 0
-14 3 0
25 -29 0
-3 25 0
7 -25 0
-17 1 0
-8 30 0
-16 -7 0
-30 -14 0
-25 -16 0
-28 11 0
-7 -4 0
18 27 0
8 -11 0
-2 -14 0
19 14 0
-14 17 0
-25 24 0
30 19 0
-20 4 0
9 -29 0
-5 12 0
14 -18 0
1 18 0
20 26 0
-4 29 0
-2 -25 0
-21 -14 0
-24 -21 0
-4 19 0
10 16 0
-10 -25 0
6 26 0
-14 22 0
-16 -20 0
-12 -3 0
-17 -14 0
-20 -17 0
-14 -6 0
22 -20 0
-16 22 0
10 -2 0
-10 -7 0
-11 -25 0
-13 24 0
8 -26 0
2 -30 0
19 -15 0
-23 -20 0
5 9 0
-18 25 0
-17 20 0
30 -25 0
22 -15 0
22 -7 0
-11 -9 0
-21 2 0
25 10 0
-29 -25 0
-12 -27 0
-30 15 0
-1 10 0
-22 3 0
-3 -24 0
-5 -1 0
