c PROBLEM_030_070_48  vars=30  clausulas=70  k=2
p cnf 30 70
-11 -6 0
20 -1 0
-8 -17 0
-27 -8 0
27 -2 0
-28 -25 0
-14 10 0
-10 -14 0
-26 30 0
-18 30 0
-16 -1 0
-30 -29 0
5 6 0
-9 -4 0
17 -6 0
-13 -2 0
-26 -16 0
-30 -28 0
-18 -1 0
23 6 0
-27 26 0
2 21 0
24 2 0
6 -22 0
23 -9 0
5 -23 0
-16 -20 0
-12 -28 0
-23 -3 0
-14 -22 0
6 -7 0
-7 22 0
-2 -27 0
18 -3 0
30 -14 0
1 -23 0
19 10 0
1 11 0
14 19 0
4 19 0
-26 -10 0
6 20 0
9 29 0
12 -10 0
-9 20 0
-15 20 0
-21 12 0
12 18 0
-15 -8 0
11 14 0
14 -20 0
27 -21 0
4 -7 0
-28 -3 0
-9 -21 0
15 22 0
-5 -29 0
-29 9 0
-15 6 0
-5 17 0
22 -1 0
13 -26 0
2 -3 0
14 25 0
9 2 0
-7 14 0
29 -13 0
23 27 0
21 -11 0
-12 -8 0
