c PROBLEM_030_070_12  vars=30  clausulas=70  k=2
p cnf 30 70
4 -25 0
20 -24 0
9 14 0
-3 8 0
-12 -2 0
-1 -10 0
-12 20 0
-28 -24 0
-24 18 0
-17 -7 0
-6 2 0
26 -1 0
-2 -27 0
17 -28 0
-28 -7 0
18 9 0
8 -10 0
8 20 0
-22 -10 0
5 -18 0
-13 -5 0
5 -16 0
29 30 0
9 6 0
-3 14 0
13 -4 0
26 -24 0
-12 28 0
30 -13 0
4 26 0
-3 -6 0
-14 17 0
23 -4 0
12 9 0
-9 -28 0
25 -22 0
-15 -7 0
1 -20 0
5 -19 0
-23 -3 0
-13 -1 0
24 7 0
13 18 0
-8 -25 0
7 12 0
6 -4 0
18 -4 0
6 -22 0
-23 25 0
-19 -16 0
-29 -27 0
4 -11 0
9 14 0
-21 19 0
-2 -15 0
-19 -15 0
-6 18 0
23 -30 0
-1 -30 0
-5 -8 0
27 -24 0
-9 2 0
-26 -9 0
-16 -10 0
-6 21 0
4 -20 0
15 22 0
-12 -17 0
29 -8 0
10 1 0
