c PROBLEM_030_070_04  vars=30  clausulas=70  k=2
p cnf 30 70
-28 -18 0
-6 26 0
26 16 0
6 -26 0
6 -14 0
-16 24 0
-2 22 0
3 13 0
15 -14 0
-22 30 0
-24 11 0
2 21 0
16 -19 0
23 -12 0
21 -9 0
-17 -19 0
-7 -27 0
-8 -12 0
8 -25 0
21 -10 0
14 -15 0
30 -6 0
-3 13 0
27 -11 0
-5 -3 0
-1 19 0
28 1 0
-22 20 0
22 12 0
-6 8 0
-29 14 0
25 27 0
6 -4 0
-6 12 0
-19 13 0
29 -24 0
-1 29 0
2 26 0
-18 -6 0
15 2 0
17 -15 0
7 -17 0
14 -30 0
26 -30 0
-28 7 0
-7 -4 0
20 -24 0
1 18 0
16 -5 0
10 -1 0
14 -22 0
19 18 0
-20 23 0
-13 -9 0
2 -28 0
-11 -13 0
-28 13 0
-9 -5 0
-26 -17 0
12 -24 0
18 -27 0
9 -16 0
14 -25 0
-8 7 0
9 -17 0
24 13 0
19 -26 0
-6 5 0
22 2 0
25 -2 0
