c PROBLEM_030_070_15  vars=30  clausulas=70  k=2
p cnf 30 70
-6 25 0
-30 -8 0
15 -27 0
4 -30 0
11 -13 0
26 -3 0
-9 -20 0
-5 -28 0
19 -30 0
15 -16 0
-8 -14 0
-20 4 0
-21 -3 0
30 -26 0
-21 10 0
11 23 0
-14 6 0
-17 13 0
7 -2 0
-23 -24 0
-23 -18 0
-23 27 0
-27 -28 0
-2 -3 0
19 -12 0
-25 13 0
19 26 0
-1 -9 0
5 -25 0
-13 18 0
29 27 0
21 -4 0
2 24 0
23 28 0
-30 23 0
19 -2 0
22 26 0
18 -4 0
-2 16 0
6 -25 0
-6 11 0
21 -13 0
-25 18 0
-5 -19 0
21 -9 0
2 18 0
16 15 0
-7 -10 0
1 30 0
-30 -11 0
-26 -13 0
27 30 0
-6 -22 0
-1 -9 0
-7 20 0
26 -30 0
5 4 0
10 -14 0
28 17 0
26 10 0
-10 -17 0
-11 -28 0
15 -12 0
-14 21 0
13 -16 0
8 -11 0
13 3 0
29 -12 0
10 -18 0
28 14 0
