c PROBLEM_030_070_08  vars=30  clausulas=70  k=2
p cnf 30 70
26 2 0
-28 -10 0
13 -29 0
-22 3 0
30 -28 0
13 12 0
-6 -21 0
10 9 0
-7 21 0
-26 17 0
-4 -19 0
-2 3 0
-15 -16 0
7 2 0
26 11 0
28 2 0
22 13 0
6 -18 0
7 28 0
-10 6 0
-25 11 0
22 26 0
14 -1 0
-28 -8 0
24 22 0
22 3 0
-23 -9 0
16 18 0
30 -20 0
-21 8 0
2 -1 0
18 15 0
-1 28 0
-11 -25 0
-21 13 0
27 -2 0
13 14 0
10 26 0
-22 -6 0
29 21 0
26 8 0
-21 4 0
-1 13 0
-18 4 0
-14 -29 0
29 2 0
-27 -12 0
16 -28 0
-21 29 0
9 12 0
16 -5 0
-1 -15 0
-29 -4 0
21 18 0
-3 -23 0
24 26 0
-22 -24 0
-13 -14 0
-3 -4 0
17 -25 0
30 -28 0
7 -24 0
-19 2 0
27 -29 0
9 -14 0
5 25 0
-13 -19 0
26 20 0
7 -9 0
-17 -22 0
