c PROBLEM_030_070_11  vars=30  clausulas=70  k=2
p cnf 30 70
-9 -28 0
-2 -8 0
-21 -9 0
-21 16 0
7 9 0
10 25 0
-18 28 0
4 -3 0
-5 -17 0
-2 -13 0
5 15 0
14 -17 0
23 3 0
-24 -7 0
-7 19 0
-5 24 0
-9 -8 0
30 8 0
11 -6 0
22 -12 0
2 -26 0
11 -3 0
-8 -29 0
6 30 0
4 -27 0
23 -8 0
-1 -26 0
-6 -22 0
19 4 0
-20 -21 0
18 8 0
-13 -18 0
21 2 0
10 25 0
15 20 0
-29 -1 0
18 -19 0
5 20 0
30 -6 0
-29 8 0
-1 -13 0
-21 2 0
-12 16 0
-14 29 0
27 17 0
-8 -10 0
-21 7 0
-18 28 0
7 -17 0
16 -1 0
2 -27 0
-16 -13 0
-25 -8 0
-18 1 0
-24 25 0
-1 22 0
13 -25 0
-18 4 0
-10 -17 0
-6 -25 0
27 1 0
3 -24 0
-29 -9 0
-3 28 0
13 -21 0
17 -13 0
-13 28 0
-7 -14 0
10 -6 0
-20 -10 0
