c PROBLEM_030_070_37  vars=30  clausulas=70  k=2
p cnf 30 70
-23 8 0
-27 -28 0
-22 -23 0
-23 -6 0
-30 29 0
-25 -22 0
28 21 0
12 -24 0
23 -1 0
-5 29 0
-29 28 0
-18 12 0
15 20 0
-9 -25 0
-19 -4 0
-14 11 0
19 -10 0
-2 -4 0
25 21 0
7 28 0
-25 -14 0
-30 26 0
-16 3 0
-1 15 0
-2 29 0
-13 -8 0
-9 -20 0
28 25 0
3 -26 0
-1 -29 0
29 17 0
9 -10 0
25 -21 0
14 -5 0
-6 -27 0
14 7 0
29 -15 0
-24 -6 0
-29 25 0
16 30 0
-2 -5 0
11 6 0
-10 -25 0
-9 7 0
15 16 0
16 -3 0
-7 23 0
-8 29 0
24 22 0
8 26 0
13 -28 0
7 -2 0
-19 -27 0
-19 12 0
11 -30 0
-2 9 0
-4 5 0
-19 -1 0
-14 -30 0
-17 16 0
-26 14 0
5 -12 0
-20 30 0
27 -4 0
-22 -21 0
13 29 0
23 -15 0
-13 14 0
25 -3 0
-11 13 0
