c PROBLEM_030_070_27  vars=30  clausulas=70  k=2
p cnf 30 70
-6 22 0
29 -6 0
12 5 0
-6 -26 0
8 -12 0
22 9 0
-30 8 0
6 -29 0
-1 -30 0
24 -5 0
28 25 0
15 -13 0
20 10 0
-7 -23 0
-24 -4 0
11 -13 0
23 -2 0
-30 14 0
9 -24 0
-18 -6 0
-5 24 0
13 -14 0
-2 8 0
-3 7 0
24 10 0
-26 -15 0
21 24 0
-26 20 0
-28 -22 0
-24 -4 0
-2 3 0
1 -27 0
4 -30 0
23 14 0
-26 4 0
16 15 0
-22 -11 0
-18 -3 0
-18 -12 0
28 -27 0
15 9 0
17 24 0
-8 -15 0
-26 3 0
6 -29 0
30 -19 0
30 5 0
-7 1 0
-23 12 0
-25 13 0
2 20 0
-17 -30 0
13 -24 0
-3 25 0
-12 -20 0
19 20 0
22 3 0
13 6 0
25 14 0
-25 -10 0
-16 -22 0
20 -26 0
21 -30 0
-11 -9 0
20 -21 0
28 -27 0
-13 -22 0
20 7 0
23 -8 0
-6 23 0
