c PROBLEM_030_070_13  vars=30  clausulas=70  k=2
p cnf 30 70
7 -11 0
21 26 0
16 -21 0
-27 22 0
-27 15 0
30 -4 0
26 -21 0
-25 -24 0
-4 24 0
-22 -14 0
29 -12 0
13 -9 0
8 29 0
-29 8 0
-26 -11 0
19 -18 0
-28 27 0
-19 -11 0
-14 -5 0
13 -21 0
-26 -18 0
12 6 0
3 -22 0
-5 -8 0
-19 21 0
-8 -18 0
14 29 0
9 26 0
-14 -28 0
-3 -4 0
-16 10 0
-8 12 0
-16 25 0
-28 -30 0
-6 -24 0
25 -28 0
-24 -13 0
10 -26 0
6 -22 0
-30 -3 0
-2 -14 0
-23 -7 0
10 3 0
23 17 0
-1 22 0
4 -15 0
-20 17 0
7 25 0
3 -21 0
10 -1 0
13 3 0
10 17 0
4 -13 0
-17 -7 0
-20 -5 0
21 -29 0
-24 -7 0
-29 13 0
13 28 0
-19 12 0
-17 23 0
1 30 0
-10 4 0
16 -29 0
-9 -28 0
-14 -22 0
-27 11 0
19 15 0
10 -19 0
-5 9 0
