c PROBLEM_030_070_23  vars=30  clausulas=70  k=2
p cnf 30 70
6 -24 0
29 21 0
28 7 0
10 11 0
11 -7 0
-22 8 0
12 4 0
-20 18 0
17 -14 0
-3 9 0
-27 -18 0
-3 -12 0
10 -15 0
20 26 0
-21 13 0
28 -27 0
1 22 0
20 6 0
23 9 0
3 -2 0
-7 3 0
-26 -19 0
30 15 0
27 29 0
24 -27 0
-13 -12 0
-28 20 0
16 5 0
9 24 0
8 9 0
-22 17 0
21 -2 0
-29 23 0
14 9 0
-26 8 0
-24 6 0
19 8 0
-4 -8 0
-5 11 0
-16 12 0
2 -27 0
-8 -16 0
19 23 0
5 -10 0
-24 8 0
28 13 0
19 25 0
26 7 0
28 -14 0
17 11 0
-28 30 0
-21 20 0
1 -15 0
22 2 0
11 -6 0
-26 21 0
27 30 0
24 -22 0
-5 -3 0
15 19 0
6 -21 0
15 11 0
-8 -21 0
13 16 0
-21 3 0
15 23 0
9 28 0
-24 -5 0
-12 -29 0
1 -2 0
