c PROBLEM_040_080_30  vars=40  clausulas=80  k=2
p cnf 40 80
13 1 0
-24 -11 0
-24 -36 0
-8 -25 0
-37 15 0
6 -35 0
35 4 0
-3 -39 0
29 -2 0
19 9 0
18 -37 0
-17 -14 0
-29 27 0
25 -35 0
-9 -17 0
39 28 0
-1 30 0
-6 16 0
-14 -17 0
12 -6 0
-30 -4 0
-40 -4 0
9 20 0
37 -22 0
-17 3 0
2 37 0
-19 7 0
-39 40 0
29 -39 0
26 -34 0
30 -33 0
-18 -12 0
12 36 0
-27 12 0
11 -31 0
24 -29 0
17 11 0
-5 29 0
13 -38 0
-10 -13 0
-29 16 0
22 10 0
18 17 0
31 14 0
-8 -24 0
-1 35 0
19 37 0
-15 -18 0
-21 -12 0
-19 21 0
5 -39 0
37 33 0
-4 -23 0
17 -4 0
31 -7 0
19 31 0
16 -23 0
8 -15 0
-2 -25 0
12 23 0
9 -1 0
8 26 0
39 37 0
6 20 0
32 -13 0
-35 -3 0
17 -23 0
38 -22 0
18 -22 0
-17 -26 0
-4 -20 0
18 -34 0
-40 4 0
-37 -21 0
-24 -2 0
9 2 0
32 1 0
-28 -39 0
-33 -18 0
-15 27 0
