c PROBLEM_040_080_23  vars=40  clausulas=80  k=2
p cnf 40 80
9 33 0
-27 4 0
-9 -6 0
2 -34 0
11 -4 0
-27 28 0
9 40 0
-8 29 0
39 36 0
23 -29 0
2 -1 0
5 4 0
-1 -24 0
5 -20 0
14 15 0
-6 -26 0
-35 14 0
-21 16 0
-15 18 0
31 16 0
21 39 0
38 -30 0
36 -20 0
35 15 0
32 21 0
34 -8 0
32 25 0
-17 10 0
-23 -15 0
-40 37 0
-20 -30 0
-22 9 0
26 8 0
-9 -34 0
7 -32 0
34 -12 0
-31 13 0
31 -30 0
-28 -12 0
35 -16 0
35 -20 0
20 15 0
-10 -22 0
-8 -14 0
-22 -36 0
23 -27 0
-11 27 0
10 -5 0
3 12 0
25 -35 0
-25 16 0
-15 37 0
-30 -33 0
37 27 0
19 14 0
-32 -2 0
38 -35 0
-18 31 0
35 1 0
29 28 0
22 -17 0
7 -29 0
26 -15 0
40 -30 0
-32 16 0
18 2 0
-8 -33 0
-8 -19 0
23 32 0
32 36 0
-26 -37 0
37 7 0
-4 24 0
-2 38 0
-27 -17 0
-19 -26 0
23 -9 0
-4 -1 0
-40 -25 0
30 38 0
