c PROBLEM_040_080_12  vars=40  clausulas=80  k=2
p cnf 40 80
-30 3 0
3 -30 0
-20 -23 0
29 -12 0
16 27 0
1 19 0
-26 -28 0
13 26 0
-24 -23 0
23 10 0
33 6 0
-7 -4 0
7 -5 0
32 20 0
-18 -35 0
-12 -40 0
24 26 0
18 -35 0
38 -15 0
-21 -4 0
-36 24 0
40 -11 0
38 -10 0
-28 -30 0
-22 -40 0
23 -3 0
31 -20 0
1 -22 0
-32 36 0
7 6 0
-13 24 0
5 14 0
-23 -12 0
2 11 0
11 -16 0
40 -32 0
17 -37 0
-7 -3 0
-2 -37 0
31 12 0
1 -28 0
29 -39 0
-3 -10 0
38 -3 0
6 -25 0
-13 -29 0
32 -13 0
-15 8 0
-39 -10 0
24 -4 0
21 29 0
8 -16 0
40 17 0
-13 -2 0
-3 -28 0
-15 -22 0
26 21 0
-15 14 0
-28 -15 0
-33 10 0
13 -18 0
-27 35 0
-12 21 0
36 -21 0
-33 4 0
26 2 0
-34 -8 0
9 -12 0
-18 -16 0
-12 -11 0
-19 -16 0
26 9 0
37 -39 0
8 -24 0
10 -40 0
-15 -40 0
-23 37 0
15 14 0
-1 19 0
21 32 0
