c PROBLEM_040_080_03  vars=40  clausulas=80  k=2
p cnf 40 80
-11 40 0
25 28 0
15 21 0
6 -22 0
28 23 0
23 22 0
-14 13 0
-7 -14 0
-18 35 0
26 -2 0
32 16 0
22 36 0
-18 38 0
5 -8 0
13 5 0
-10 21 0
19 11 0
-24 33 0
26 -35 0
27 16 0
12 -23 0
-27 30 0
-30 -37 0
31 -4 0
10 1 0
28 -25 0
35 27 0
-13 -4 0
-9 40 0
6 -17 0
1 26 0
29 -22 0
-39 20 0
-33 -3 0
14 -40 0
-3 35 0
24 17 0
19 39 0
19 -17 0
-24 9 0
-25 33 0
35 28 0
-32 9 0
5 27 0
39 -9 0
38 -24 0
7 -31 0
26 -35 0
7 -18 0
-14 -37 0
28 33 0
-35 -17 0
-10 -28 0
-1 -18 0
30 18 0
-12 -2 0
-19 -1 0
-34 30 0
32 -14 0
-21 26 0
-36 31 0
-11 10 0
14 -18 0
37 30 0
-16 21 0
-26 34 0
9 23 0
-25 -1 0
20 5 0
-32 33 0
-18 -30 0
12 -39 0
22 -30 0
-11 -21 0
11 31 0
9 7 0
-5 -35 0
29 16 0
-5 -10 0
-21 -19 0
