c PROBLEM_040_080_24  vars=40  clausulas=80  k=2
p cnf 40 80
-4 29 0
-15 -12 0
-35 10 0
6 12 0
16 -7 0
14 37 0
-9 -6 0
25 -29 0
39 2 0
22 1 0
-28 11 0
-39 -19 0
-31 -6 0
19 15 0
26 -11 0
-4 -23 0
5 22 0
39 8 0
18 -29 0
-14 37 0
21 15 0
30 24 0
2 -15 0
-17 -33 0
-33 22 0
23 30 0
17 -5 0
-18 -39 0
-16 -9 0
-3 39 0
-11 10 0
-10 -28 0
35 -12 0
17 -36 0
-32 10 0
-3 18 0
15 11 0
22 -34 0
-31 -10 0
13 -20 0
40 -26 0
19 11 0
-7 5 0
-17 -27 0
-22 8 0
3 14 0
-19 32 0
38 -13 0
9 20 0
-38 -10 0
33 -24 0
24 17 0
31 -18 0
-7 36 0
-10 40 0
-11 9 0
18 -25 0
23 -22 0
-7 -33 0
39 -9 0
-25 -4 0
-3 33 0
13 38 0
-38 -20 0
-40 -32 0
12 -32 0
34 -9 0
6 28 0
5 30 0
27 -3 0
-20 26 0
-34 -36 0
-21 26 0
-40 -5 0
37 11 0
25 -14 0
-16 -5 0
22 6 0
11 -33 0
3 -37 0
