c PROBLEM_040_080_04  vars=40  clausulas=80  k=2
p cnf 40 80
22 25 0
-7 -19 0
40 -36 0
13 36 0
-15 -22 0
-5 15 0
-19 21 0
17 7 0
8 29 0
7 -39 0
1 6 0
24 15 0
-26 37 0
-37 29 0
20 -17 0
24 6 0
-29 33 0
-35 -36 0
-16 7 0
-33 34 0
33 -25 0
23 -4 0
-1 -30 0
-12 9 0
-40 -8 0
-32 -34 0
-15 5 0
-16 -30 0
-8 26 0
28 23 0
35 20 0
39 21 0
2 -33 0
34 29 0
25 15 0
-28 -8 0
-3 31 0
-20 16 0
-34 12 0
19 -3 0
4 -33 0
5 -36 0
-22 9 0
36 -11 0
-26 -27 0
23 35 0
35 -10 0
15 -18 0
-9 -32 0
-29 -33 0
-8 -5 0
30 -20 0
-13 5 0
-6 1 0
-8 -7 0
10 -17 0
33 35 0
38 -14 0
22 3 0
-3 -13 0
-31 -33 0
-36 9 0
4 32 0
-39 36 0
2 -6 0
-13 12 0
15 6 0
-27 4 0
-20 14 0
-31 -11 0
14 12 0
-1 -10 0
-2 -38 0
32 38 0
-16 -19 0
-27 14 0
-21 -40 0
-21 -12 0
21 -19 0
-18 -37 0
