c PROBLEM_040_080_28  vars=40  clausulas=80  k=2
p cnf 40 80
13 -12 0
11 2 0
-5 -25 0
-6 11 0
-24 -1 0
-37 18 0
27 -11 0
-32 -1 0
19 -8 0
-2 -12 0
-10 -34 0
13 17 0
38 39 0
22 -20 0
-21 -3 0
-8 -9 0
-29 -31 0
-35 37 0
-13 -4 0
-32 -35 0
-4 13 0
4 -12 0
39 -22 0
15 -1 0
28 -39 0
13 18 0
12 28 0
2 -31 0
11 -32 0
-8 -24 0
-19 -37 0
12 -19 0
13 -15 0
26 38 0
-35 32 0
-38 -15 0
-36 38 0
-16 9 0
10 -33 0
6 4 0
39 -10 0
-26 5 0
-29 -17 0
-19 -32 0
-26 10 0
10 -11 0
-21 -32 0
19 35 0
32 13 0
-17 38 0
-29 1 0
-5 -35 0
-2 37 0
14 13 0
-23 35 0
23 17 0
7 -32 0
29 -9 0
-33 -16 0
11 -8 0
21 28 0
-37 33 0
27 3 0
-20 -26 0
-23 9 0
-30 23 0
17 40 0
38 -15 0
36 -39 0
-34 2 0
4 15 0
-5 -9 0
1 -28 0
7 -30 0
-18 -36 0
29 22 0
-40 -25 0
6 30 0
22 21 0
-9 13 0
