c PROBLEM_040_080_15  vars=40  clausulas=80  k=2
p cnf 40 80
17 -39 0
23 -7 0
37 4 0
-26 -32 0
-11 -32 0
33 -13 0
-10 9 0
-8 -1 0
23 25 0
27 8 0
-37 -20 0
-13 17 0
-37 26 0
-32 -21 0
28 13 0
-3 -8 0
-16 -28 0
-30 -6 0
-16 25 0
26 10 0
-32 20 0
33 16 0
35 1 0
-39 33 0
-26 19 0
-2 25 0
23 -14 0
9 -21 0
36 18 0
-27 20 0
-13 -2 0
37 16 0
15 -27 0
18 -3 0
3 -28 0
29 -26 0
33 -26 0
-40 -6 0
27 -34 0
-14 5 0
-23 -39 0
38 -12 0
-12 13 0
4 -38 0
31 -9 0
-25 24 0
14 -18 0
-8 14 0
22 -2 0
-38 -33 0
30 -27 0
38 21 0
-5 -1 0
2 23 0
31 22 0
37 32 0
-13 -34 0
-40 19 0
22 12 0
-30 -25 0
2 -30 0
-29 28 0
7 -39 0
30 16 0
-8 30 0
1 -26 0
-26 15 0
20 30 0
29 30 0
-28 -35 0
7 -8 0
-9 6 0
-28 9 0
-32 -24 0
22 -33 0
11 -19 0
-20 -25 0
-9 -20 0
-24 -17 0
5 -34 0
