c PROBLEM_040_080_36  vars=40  clausulas=80  k=2
p cnf 40 80
33 -5 0
-10 -20 0
23 -5 0
7 1 0
22 -15 0
4 -40 0
40 -28 0
40 14 0
-29 -15 0
-30 -24 0
9 21 0
-25 -39 0
-37 17 0
32 8 0
-21 -37 0
8 -4 0
-34 -33 0
-21 25 0
-15 5 0
14 -12 0
-22 17 0
40 16 0
33 32 0
-10 -21 0
-3 -15 0
35 27 0
25 15 0
6 -19 0
39 -36 0
2 -36 0
-26 -4 0
13 -22 0
-32 -6 0
-3 30 0
-23 -20 0
-1 34 0
-11 -18 0
-15 2 0
-1 32 0
-23 28 0
11 -8 0
-11 33 0
-36 -4 0
18 -3 0
-9 28 0
-34 37 0
20 -14 0
-3 -29 0
5 -32 0
-5 -37 0
33 7 0
11 19 0
39 -2 0
33 30 0
-14 -23 0
-2 -11 0
39 19 0
6 33 0
4 38 0
40 -10 0
-16 -13 0
9 14 0
-18 -40 0
38 -3 0
-38 11 0
-40 10 0
3 -5 0
30 10 0
27 -18 0
-32 -18 0
11 -13 0
33 10 0
4 -39 0
-27 -18 0
31 24 0
-12 23 0
-37 -38 0
25 -27 0
-12 11 0
-4 -3 0
