c PROBLEM_040_080_31  vars=40  clausulas=80  k=2
p cnf 40 80
-25 -26 0
-5 -35 0
3 -40 0
32 -19 0
-35 -14 0
25 2 0
-24 -38 0
34 -18 0
21 18 0
-8 24 0
30 -17 0
37 -24 0
21 -37 0
-19 -12 0
-21 4 0
35 13 0
-7 25 0
-26 -7 0
15 20 0
17 -34 0
-4 34 0
-10 -21 0
-34 -26 0
-26 39 0
-34 29 0
-23 -21 0
21 -14 0
-25 -32 0
-23 29 0
30 3 0
35 15 0
-2 1 0
36 -15 0
-3 -6 0
21 -13 0
6 -19 0
-35 15 0
34 -40 0
26 32 0
7 -14 0
21 16 0
18 -29 0
-6 -38 0
39 -38 0
-1 -27 0
39 34 0
-23 37 0
22 -7 0
-6 -39 0
40 13 0
24 -9 0
7 -11 0
1 -37 0
23 -12 0
-9 35 0
-7 39 0
28 7 0
-25 28 0
33 -8 0
-26 -12 0
-14 -11 0
1 -13 0
8 -14 0
9 -37 0
33 -22 0
-2 -35 0
36 -31 0
-29 8 0
-9 -16 0
23 2 0
-24 22 0
-14 6 0
8 3 0
4 -20 0
22 -30 0
-5 30 0
20 -36 0
-4 18 0
33 -38 0
20 2 0
