c PROBLEM_040_080_29  vars=40  clausulas=80  k=2
p cnf 40 80
19 -10 0
-11 -4 0
17 28 0
-25 -29 0
-1 -31 0
5 16 0
-12 -24 0
36 -38 0
-25 -7 0
36 16 0
-12 13 0
-16 -24 0
38 -12 0
25 -18 0
-34 23 0
-36 -7 0
-11 -33 0
-25 40 0
-27 35 0
-32 12 0
9 34 0
-35 31 0
5 -20 0
9 -5 0
15 38 0
-26 20 0
-11 -22 0
21 9 0
-17 7 0
-19 -1 0
39 -36 0
24 -28 0
26 -40 0
29 3 0
-2 31 0
-14 -21 0
28 15 0
-9 5 0
10 37 0
8 24 0
35 36 0
21 -11 0
35 -4 0
19 -35 0
-2 3 0
22 -15 0
-27 -22 0
-7 29 0
35 6 0
-17 -10 0
33 -3 0
-5 -15 0
-32 38 0
-28 40 0
-6 18 0
-12 21 0
18 1 0
19 29 0
-5 -12 0
17 6 0
-32 -18 0
-21 -17 0
4 -29 0
-20 6 0
-8 -1 0
35 7 0
34 19 0
-32 10 0
2 38 0
33 30 0
-14 12 0
-7 -24 0
40 -16 0
-25 16 0
12 22 0
32 -1 0
29 -27 0
26 -13 0
-11 16 0
2 -22 0
