c PROBLEM_040_080_26  vars=40  clausulas=80  k=2
p cnf 40 80
13 32 0
33 23 0
38 31 0
4 -35 0
-10 20 0
40 -14 0
-25 1 0
30 -12 0
-22 7 0
-35 38 0
40 13 0
-27 18 0
-9 -40 0
8 22 0
11 20 0
-35 3 0
15 -34 0
-26 -39 0
10 18 0
32 -37 0
17 -22 0
7 21 0
3 -6 0
-5 -9 0
-22 -39 0
-1 -29 0
-27 9 0
-16 -14 0
30 10 0
-40 32 0
-36 13 0
-24 12 0
-20 -29 0
-4 31 0
-17 2 0
-29 -2 0
-21 -7 0
32 31 0
23 -36 0
3 31 0
22 31 0
29 6 0
33 -19 0
-31 -40 0
-11 -9 0
2 21 0
35 3 0
30 -12 0
-36 27 0
18 40 0
1 -24 0
-5 8 0
11 -33 0
3 14 0
31 -24 0
30 28 0
-7 15 0
29 -40 0
-1 31 0
-31 8 0
12 -36 0
-23 25 0
-1 -33 0
-9 4 0
23 33 0
-31 22 0
-13 -18 0
-27 -37 0
-2 35 0
2 8 0
-39 27 0
-8 38 0
-22 10 0
39 16 0
-19 -18 0
-18 -30 0
22 37 0
24 29 0
20 -5 0
1 -27 0
