c PROBLEM_040_080_19  vars=40  clausulas=80  k=2
p cnf 40 80
11 15 0
37 34 0
12 16 0
-16 -14 0
-21 -27 0
-27 -33 0
35 29 0
-13 9 0
-16 -10 0
-26 -9 0
14 -12 0
24 -34 0
-19 17 0
24 -36 0
-4 39 0
-37 -40 0
26 -14 0
2 -37 0
18 -33 0
-32 9 0
-40 34 0
-11 27 0
-30 19 0
15 38 0
-34 38 0
-36 -14 0
22 23 0
22 -33 0
7 -5 0
-31 15 0
-4 -33 0
3 -35 0
7 23 0
18 -35 0
-6 38 0
-20 -28 0
-30 18 0
-1 12 0
-3 6 0
-7 -36 0
-1 -26 0
-14 30 0
-21 33 0
-25 -7 0
16 2 0
-11 27 0
11 -10 0
18 27 0
34 26 0
-25 -8 0
-35 -5 0
31 -23 0
8 -14 0
-8 22 0
-27 -2 0
-23 2 0
-13 7 0
21 38 0
29 -12 0
15 40 0
35 -12 0
-10 -31 0
-1 -19 0
-29 31 0
8 -7 0
-4 -34 0
3 14 0
25 36 0
-18 17 0
25 27 0
34 33 0
29 39 0
-28 -29 0
-17 -25 0
-33 -1 0
-36 -9 0
12 29 0
-30 11 0
-28 -24 0
-35 -25 0
