c PROBLEM_040_080_43  vars=40  clausulas=80  k=2
p cnf 40 80
-13 30 0
-4 35 0
-20 2 0
-16 -21 0
-11 20 0
32 -38 0
2 3 0
20 -31 0
-30 38 0
9 -20 0
-36 -35 0
22 -21 0
-1 36 0
-4 -37 0
-26 -8 0
32 38 0
-10 27 0
-10 -8 0
-25 18 0
9 -30 0
-33 -40 0
11 -37 0
35 14 0
-16 33 0
30 -26 0
-39 -12 0
12 -28 0
-24 4 0
39 11 0
-14 4 0
-32 -24 0
-10 14 0
8 -38 0
3 -22 0
-21 27 0
-34 -19 0
-22 -1 0
-25 24 0
7 -4 0
23 33 0
28 -16 0
37 31 0
-2 24 0
-11 13 0
31 -33 0
-34 -40 0
-25 -11 0
-25 13 0
-22 1 0
2 -3 0
-29 40 0
-7 5 0
-23 33 0
12 -15 0
23 10 0
-22 18 0
-39 7 0
-26 -13 0
39 5 0
37 8 0
5 -3 0
22 -14 0
-22 32 0
6 18 0
32 -1 0
9 -32 0
13 27 0
19 -32 0
-6 -1 0
-1 16 0
-2 39 0
-23 -2 0
-34 29 0
-17 1 0
17 -1 0
-2 38 0
11 -29 0
11 -8 0
-1 -17 0
11 36 0
