c PROBLEM_040_080_07  vars=40  clausulas=80  k=2
p cnf 40 80
20 -26 0
34 4 0
-2 3 0
-22 1 0
12 15 0
10 13 0
-1 23 0
22 -30 0
15 -5 0
39 28 0
4 12 0
29 2 0
-28 -11 0
-35 -8 0
-10 23 0
-11 -25 0
-12 -20 0
7 -3 0
-6 4 0
-35 -29 0
-17 -24 0
-30 -5 0
9 -37 0
5 35 0
-2 -18 0
-29 -27 0
8 -3 0
4 9 0
-36 11 0
-4 15 0
-27 22 0
-12 40 0
21 -37 0
-40 6 0
-39 -4 0
34 2 0
-32 -38 0
-23 -38 0
-21 -33 0
5 28 0
-8 -6 0
24 15 0
8 38 0
39 -7 0
19 -4 0
33 31 0
-33 -7 0
-1 -32 0
20 5 0
14 -26 0
5 29 0
-27 15 0
-2 -30 0
28 10 0
34 -20 0
-36 19 0
-16 30 0
-6 39 0
-19 18 0
20 6 0
7 -5 0
-15 -7 0
-35 13 0
-1 -13 0
-25 12 0
-25 -34 0
38 -17 0
3 -4 0
18 33 0
-31 24 0
34 -38 0
7 29 0
-13 24 0
-32 31 0
-8 36 0
-18 21 0
-11 32 0
-6 -10 0
4 25 0
14 -39 0
