c PROBLEM_040_080_46  vars=40  clausulas=80  k=2
p cnf 40 80
-25 -14 0
-37 -24 0
12 -38 0
-17 -34 0
16 -36 0
-10 -38 0
39 16 0
4 -17 0
9 -20 0
-26 10 0
-15 21 0
-26 27 0
-31 -16 0
34 -14 0
24 -33 0
-39 -9 0
-5 31 0
13 15 0
14 23 0
-25 33 0
-34 -32 0
11 -38 0
22 16 0
10 37 0
21 -30 0
-4 14 0
18 -9 0
3 -28 0
5 27 0
-7 -40 0
24 -22 0
19 13 0
11 -39 0
17 -28 0
27 -6 0
-8 13 0
40 -37 0
-22 -31 0
-6 -32 0
-35 -26 0
-2 35 0
-9 -37 0
12 -18 0
-25 12 0
-1 2 0
-36 18 0
-18 32 0
-35 -13 0
-26 40 0
-20 -19 0
-39 1 0
-19 -10 0
-33 40 0
-2 35 0
13 -39 0
24 8 0
-23 -14 0
-34 7 0
-24 -39 0
-30 -16 0
4 8 0
-12 -26 0
6 5 0
25 32 0
-7 -26 0
-28 -7 0
14 37 0
-8 4 0
-1 -6 0
-24 -32 0
18 3 0
-31 7 0
20 -2 0
17 -19 0
9 -19 0
-6 12 0
37 19 0
37 29 0
34 -5 0
38 27 0
