c PROBLEM_040_080_44  vars=40  clausulas=80  k=2
p cnf 40 80
-24 7 0
-9 7 0
22 -13 0
38 2 0
3 26 0
9 -40 0
29 -4 0
-22 23 0
40 -2 0
-8 -7 0
14 -23 0
13 6 0
40 5 0
1 17 0
7 -30 0
12 16 0
20 24 0
-15 19 0
-20 -18 0
-21 20 0
-17 -9 0
17 11 0
31 40 0
31 -11 0
-29 -32 0
-15 -22 0
-25 -22 0
14 4 0
34 -39 0
29 -15 0
3 21 0
40 13 0
-37 -33 0
-20 -37 0
1 3 0
-24 9 0
-28 25 0
38 17 0
-39 22 0
39 -35 0
-4 -39 0
15 10 0
6 -40 0
8 4 0
3 -5 0
-12 -34 0
29 -8 0
-2 -25 0
40 -7 0
22 -18 0
37 29 0
-8 4 0
-26 -36 0
33 14 0
-33 26 0
31 -14 0
-24 35 0
-22 -15 0
-39 -9 0
-31 -24 0
4 -33 0
21 32 0
-34 21 0
38 -6 0
17 -18 0
25 38 0
12 -29 0
28 -30 0
-30 6 0
-6 27 0
-16 11 0
38 -22 0
-38 -12 0
29 33 0
-34 11 0
-5 17 0
29 -15 0
-25 1 0
-37 -2 0
-31 -17 0
