c PROBLEM_040_080_05  vars=40  clausulas=80  k=2
p cnf 40 80
-7 -5 0
-34 18 0
-6 13 0
-14 36 0
10 -12 0
11 -20 0
-24 -33 0
6 -11 0
29 35 0
-32 14 0
-25 -35 0
-14 28 0
-18 -30 0
-19 -27 0
-40 8 0
13 -9 0
20 4 0
-6 -20 0
30 -38 0
31 15 0
-21 30 0
19 16 0
1 11 0
-39 12 0
-1 11 0
29 -19 0
-14 -35 0
-37 20 0
33 34 0
-29 -13 0
-20 19 0
-16 29 0
-11 36 0
-11 -5 0
-30 -36 0
16 30 0
20 7 0
-26 -2 0
30 1 0
-3 12 0
23 21 0
9 30 0
5 32 0
-28 3 0
29 -32 0
-30 18 0
-1 30 0
-33 -2 0
-28 -8 0
12 16 0
-2 23 0
-38 -26 0
34 11 0
-22 1 0
5 16 0
-13 -9 0
-22 -29 0
-19 21 0
18 36 0
-6 22 0
10 -18 0
-34 -32 0
4 10 0
5 17 0
-39 16 0
20 5 0
-26 40 0
-3 33 0
-33 18 0
6 7 0
11 37 0
-22 -14 0
-16 24 0
31 7 0
13 31 0
-21 2 0
-1 33 0
-36 15 0
10 16 0
37 -1 0
