c PROBLEM_040_080_47  vars=40  clausulas=80  k=2
p cnf 40 80
35 33 0
-12 -13 0
-34 -38 0
36 -29 0
4 3 0
4 10 0
8 5 0
11 27 0
-14 -29 0
-31 -1 0
10 -1 0
-37 -40 0
-17 -18 0
-6 -7 0
38 22 0
6 24 0
33 -19 0
-3 -16 0
8 4 0
-1 -3 0
18 11 0
36 32 0
36 7 0
20 -9 0
-15 -27 0
-18 29 0
9 39 0
39 -2 0
-15 29 0
-5 -29 0
21 18 0
-7 29 0
7 19 0
21 18 0
8 -1 0
-27 35 0
-35 27 0
11 25 0
-17 30 0
-36 -9 0
-33 -2 0
-29 12 0
-1 -5 0
-24 25 0
21 29 0
32 29 0
23 -9 0
-27 -6 0
7 -16 0
23 -22 0
30 -34 0
-15 -21 0
33 -29 0
-40 35 0
33 30 0
23 17 0
-20 14 0
30 -26 0
2 5 0
9 -38 0
1 -39 0
-11 -27 0
24 -31 0
5 18 0
16 17 0
-10 34 0
14 -11 0
-24 -28 0
33 24 0
18 20 0
-19 5 0
-18 39 0
-22 37 0
22 39 0
-11 25 0
23 -37 0
-23 -38 0
-39 -27 0
25 -30 0
-22 1 0
