c PROBLEM_040_080_02  vars=40  clausulas=80  k=2
p cnf 40 80
31 34 0
-40 -18 0
14 -2 0
1 -14 0
-12 -22 0
-4 33 0
27 13 0
-22 -14 0
-32 -30 0
27 -15 0
34 25 0
27 8 0
-35 -28 0
-10 33 0
-7 -34 0
8 25 0
37 11 0
-11 7 0
35 -27 0
23 3 0
-25 -24 0
-6 -14 0
-31 -28 0
38 10 0
17 1 0
-18 -34 0
-34 -14 0
-3 -38 0
-33 -7 0
13 29 0
6 -21 0
15 -5 0
35 7 0
18 -16 0
-35 20 0
9 -28 0
-38 -17 0
20 -18 0
15 20 0
-4 -5 0
39 -25 0
11 -29 0
-4 16 0
15 -1 0
-36 1 0
2 -19 0
20 -13 0
-25 -4 0
-35 -23 0
-25 -30 0
-27 21 0
-15 37 0
-33 12 0
8 -17 0
-32 26 0
-19 -31 0
-32 4 0
-28 37 0
10 40 0
31 -30 0
14 40 0
10 7 0
40 4 0
38 3 0
31 -29 0
-8 -1 0
37 -4 0
40 -36 0
-26 3 0
31 -25 0
-21 11 0
-13 4 0
-7 -18 0
-7 -9 0
27 9 0
-33 -22 0
34 25 0
-26 -20 0
36 -37 0
-13 -6 0
