c PROBLEM_040_080_01  vars=40  clausulas=80  k=2
p cnf 40 80
-11 1 0
14 -36 0
-40 9 0
-10 -32 0
-35 -26 0
-35 -22 0
25 -22 0
-4 -33 0
-38 14 0
36 -5 0
-39 -36 0
-6 -17 0
-39 -30 0
38 -34 0
14 -13 0
-16 33 0
-40 -16 0
-6 12 0
21 -1 0
-25 7 0
35 27 0
33 34 0
-6 -31 0
15 38 0
-1 23 0
-39 23 0
17 -18 0
6 28 0
-2 -24 0
-36 1 0
29 -2 0
8 33 0
-30 16 0
-6 -20 0
-16 12 0
29 -25 0
9 -7 0
7 -16 0
-23 -13 0
-10 -27 0
12 -9 0
17 14 0
-11 -30 0
-31 5 0
-4 -33 0
4 -6 0
13 -29 0
-27 2 0
-18 26 0
37 -23 0
-24 -7 0
31 6 0
31 29 0
19 -17 0
8 -32 0
1 5 0
-32 -20 0
21 22 0
-22 -26 0
25 26 0
22 14 0
37 -36 0
-10 -3 0
-34 39 0
-1 3 0
17 20 0
18 -5 0
-21 -38 0
24 -7 0
11 -30 0
22 18 0
36 -15 0
38 -9 0
-34 -11 0
12 13 0
22 1 0
-10 -19 0
3 -18 0
31 15 0
-16 -21 0
