c PROBLEM_040_080_33  vars=40  clausulas=80  k=2
p cnf 40 80
-30 -10 0
-9 39 0
5 20 0
39 -26 0
-9 -5 0
20 9 0
-19 -34 0
-8 -14 0
-24 21 0
34 -33 0
20 11 0
40 -7 0
-31 -15 0
-10 -12 0
13 3 0
20 5 0
-36 -24 0
27 -16 0
-5 -2 0
-6 36 0
-39 -27 0
21 -30 0
-19 -8 0
1 3 0
31 -21 0
21 -18 0
-22 37 0
3 16 0
28 9 0
2 -18 0
-2 -12 0
-24 -32 0
26 -5 0
-11 -31 0
25 23 0
37 15 0
1 5 0
30 13 0
39 35 0
20 7 0
-18 -1 0
-5 -27 0
25 -15 0
36 22 0
-34 30 0
24 19 0
-4 -35 0
-26 -4 0
-4 25 0
-8 -37 0
-30 -6 0
-21 36 0
-37 -40 0
36 32 0
-7 22 0
29 -37 0
-25 -22 0
3 -29 0
31 33 0
-26 -16 0
18 25 0
17 15 0
-6 -31 0
-38 -37 0
36 -31 0
13 -23 0
-10 -13 0
3 28 0
38 9 0
-8 10 0
17 -14 0
-24 -22 0
2 -8 0
3 -27 0
40 -32 0
38 -18 0
-22 -17 0
33 -38 0
31 -8 0
28 -26 0
