c PROBLEM_035_090_32  vars=35  clausulas=90  k=2
p cnf 35 90
-8 -32 0
10 -17 0
10 23 0
-5 21 0
-21 32 0
6 14 0
-29 -35 0
14 -5 0
-5 -25 0
18 -29 0
18 15 0
-3 -26 0
5 -20 0
-33 25 0
9 10 0
-9 -17 0
35 -4 0
-9 6 0
-5 -22 0
11 -15 0
-2 19 0
2 23 0
-28 -31 0
35 -28 0
-14 32 0
24 -5 0
-24 13 0
-30 29 0
-14 -1 0
19 -15 0
-15 1 0
-3 -24 0
-25 -9 0
15 -32 0
-20 4 0
35 -14 0
-26 32 0
-12 15 0
-26 9 0
35 8 0
-2 17 0
11 28 0
35 -34 0
4 9 0
-20 -15 0
-29 -23 0
10 -15 0
20 23 0
25 34 0
21 -9 0
-35 7 0
1 26 0
-18 -20 0
22 -9 0
17 16 0
-5 20 0
-27 -8 0
-31 12 0
-6 -29 0
35 -29 0
22 13 0
-4 7 0
-8 1 0
17 10 0
7 17 0
-10 11 0
25 5 0
-16 -31 0
13 -24 0
35 32 0
30 -14 0
-23 -8 0
-12 -30 0
-17 -25 0
-34 10 0
33 -27 0
-18 9 0
-23 -10 0
-17 27 0
-4 -35 0
-26 17 0
-4 3 0
-6 -12 0
31 -24 0
-24 19 0
22 -4 0
-14 -30 0
6 -33 0
-26 -25 0
-8 30 0
