c PROBLEM_035_090_43  vars=35  clausulas=90  k=2
p cnf 35 90
2 24 0
32 -27 0
-9 19 0
23 -15 0
-19 -28 0
-4 3 0
4 -18 0
-27 14 0
8 -18 0
28 19 0
-19 -11 0
-19 -35 0
22 6 0
15 -3 0
-7 26 0
-7 -32 0
-10 -15 0
-5 29 0
32 -23 0
-24 -19 0
20 -27 0
-22 -14 0
-5 17 0
13 20 0
-9 28 0
2 5 0
-8 28 0
15 -2 0
29 16 0
-20 -17 0
14 -28 0
-7 -34 0
28 -21 0
25 1 0
31 18 0
5 -3 0
3 -9 0
-2 10 0
22 -27 0
-24 -33 0
19 16 0
11 -35 0
28 -14 0
-5 13 0
-29 12 0
-9 19 0
-9 -2 0
23 31 0
18 30 0
-11 34 0
-15 -23 0
-14 -22 0
-13 -16 0
13 30 0
31 -10 0
-11 -9 0
-23 20 0
-30 16 0
35 -7 0
-31 -11 0
-13 -25 0
5 34 0
27 -4 0
18 -2 0
-11 33 0
30 -16 0
-10 -22 0
-1 -26 0
13 35 0
14 2 0
-20 35 0
25 22 0
22 -30 0
32 25 0
-28 -9 0
7 17 0
-21 11 0
16 -25 0
-3 30 0
4 31 0
10 1 0
18 3 0
20 -34 0
32 -6 0
-25 -17 0
-33 -6 0
27 -13 0
-9 -17 0
29 -35 0
-25 6 0
