c PROBLEM_035_090_14  vars=35  clausulas=90  k=2
p cnf 35 90
-15 -33 0
32 16 0
-9 19 0
21 -35 0
-27 -2 0
23 26 0
3 7 0
19 17 0
-24 -34 0
35 4 0
-27 -23 0
-30 29 0
2 14 0
12 -6 0
3 -12 0
9 2 0
-5 10 0
-31 -9 0
-30 -24 0
20 4 0
-10 12 0
23 22 0
32 34 0
5 24 0
6 2 0
22 28 0
-18 27 0
1 3 0
4 12 0
-20 22 0
-24 -4 0
28 -34 0
-27 -23 0
18 -9 0
1 -31 0
30 6 0
9 -21 0
11 -20 0
35 -16 0
-19 -22 0
-35 -30 0
-23 14 0
-15 32 0
27 -10 0
29 -13 0
-8 -29 0
5 2 0
-10 13 0
29 22 0
-25 12 0
-7 20 0
-6 29 0
-14 8 0
-18 11 0
-31 -28 0
-17 29 0
20 28 0
-33 31 0
34 13 0
-35 10 0
18 19 0
-35 -26 0
4 14 0
-28 -35 0
-33 31 0
-11 33 0
17 -25 0
10 4 0
12 -1 0
8 3 0
-24 -20 0
12 9 0
-31 11 0
2 1 0
-28 3 0
-18 11 0
-29 -25 0
-35 -24 0
-8 22 0
-29 -12 0
-16 11 0
-21 13 0
23 12 0
33 -16 0
9 -27 0
-32 -9 0
31 -1 0
18 -20 0
-33 21 0
17 -28 0
