c PROBLEM_035_090_10  vars=35  clausulas=90  k=2
p cnf 35 90
-13 7 0
-11 30 0
28 -30 0
-9 5 0
-5 35 0
-26 14 0
35 7 0
-4 6 0
-8 5 0
-22 3 0
-9 8 0
21 -31 0
-27 -7 0
22 30 0
14 24 0
-21 33 0
-1 -29 0
-12 -28 0
-5 -31 0
7 18 0
-4 6 0
26 -8 0
32 14 0
16 21 0
-29 -34 0
12 34 0
11 26 0
-2 -4 0
-35 3 0
-19 -2 0
12 -25 0
29 16 0
-13 11 0
20 -17 0
19 -16 0
18 9 0
6 -16 0
8 2 0
-18 -21 0
5 -10 0
-10 -29 0
-32 26 0
-34 -20 0
17 -31 0
10 22 0
-11 -6 0
-31 -27 0
-20 -10 0
-30 -27 0
22 21 0
-17 28 0
31 7 0
7 25 0
-11 34 0
-22 -8 0
2 -6 0
-34 13 0
-5 33 0
-4 23 0
-27 -2 0
8 29 0
-31 18 0
-35 30 0
26 16 0
28 -35 0
-26 13 0
24 16 0
-9 10 0
-24 30 0
-26 22 0
32 -7 0
4 23 0
-21 32 0
33 -4 0
29 -25 0
-9 31 0
-19 31 0
16 -18 0
32 14 0
-16 12 0
-28 11 0
6 9 0
-26 -14 0
9 -15 0
-6 -28 0
5 -29 0
-15 -23 0
16 -3 0
15 -12 0
18 13 0
