c PROBLEM_035_090_36  vars=35  clausulas=90  k=2
p cnf 35 90
-12 -28 0
20 -11 0
-2 -12 0
-22 25 0
-9 8 0
31 -20 0
-30 4 0
34 -6 0
27 -35 0
33 26 0
17 -5 0
32 -21 0
-20 -1 0
24 7 0
-14 -34 0
-14 28 0
-22 -35 0
17 -29 0
-18 10 0
-24 -5 0
-25 -28 0
-10 -22 0
18 -23 0
-20 26 0
-1 -28 0
31 20 0
28 -2 0
6 -29 0
28 4 0
5 -11 0
1 16 0
-35 7 0
3 34 0
15 -25 0
-32 24 0
-21 11 0
22 -25 0
-9 -8 0
26 -11 0
-35 -25 0
-20 -12 0
30 17 0
27 1 0
11 -27 0
-9 -23 0
-33 11 0
3 -5 0
-10 30 0
15 11 0
-19 -6 0
6 27 0
31 22 0
-1 35 0
-33 -31 0
-16 9 0
31 10 0
21 -30 0
-28 -11 0
-1 -23 0
23 35 0
16 -12 0
-31 27 0
-10 -11 0
-32 10 0
-5 11 0
-13 14 0
-32 22 0
-13 19 0
21 18 0
13 -17 0
-6 -8 0
15 -24 0
-3 -8 0
-25 12 0
31 22 0
-4 -25 0
24 25 0
-6 3 0
29 -21 0
-33 -23 0
7 -12 0
-10 15 0
9 8 0
10 -2 0
-34 -10 0
-17 29 0
-32 -33 0
31 23 0
-14 -23 0
-19 28 0
