c PROBLEM_035_090_01  vars=35  clausulas=90  k=2
p cnf 35 90
-25 -30 0
-24 -29 0
23 -25 0
23 -14 0
-22 18 0
28 25 0
-12 -18 0
32 16 0
-31 -32 0
-7 10 0
-25 -26 0
32 -26 0
-18 13 0
-15 30 0
-33 -15 0
23 34 0
11 20 0
13 -29 0
29 7 0
-10 26 0
-34 3 0
12 32 0
13 18 0
35 -9 0
29 -16 0
7 -17 0
-32 -25 0
18 21 0
-19 21 0
24 -13 0
3 17 0
-17 12 0
9 -2 0
2 29 0
31 -3 0
-17 -16 0
10 -23 0
-27 8 0
-34 19 0
-27 8 0
-7 33 0
30 24 0
-5 -13 0
4 5 0
35 5 0
-25 -21 0
27 16 0
-10 -7 0
-34 14 0
20 6 0
6 22 0
17 -9 0
-34 30 0
-6 31 0
-13 -20 0
17 -12 0
11 -8 0
2 22 0
-18 19 0
7 -12 0
-9 -20 0
-2 -3 0
-32 -7 0
-25 -8 0
1 25 0
13 17 0
21 -20 0
-31 25 0
20 -11 0
-33 2 0
22 -28 0
-31 -29 0
23 -24 0
35 -28 0
31 -15 0
-19 -8 0
13 -4 0
-11 1 0
-33 21 0
19 -12 0
14 -23 0
-7 -31 0
24 29 0
-14 -25 0
-5 35 0
4 10 0
12 26 0
-13 -12 0
9 -5 0
-9 31 0
