c PROBLEM_035_090_40  vars=35  clausulas=90  k=2
p cnf 35 90
10 20 0
-4 -15 0
14 -5 0
-3 35 0
-8 14 0
-19 23 0
-28 -23 0
23 4 0
33 -11 0
3 -9 0
-33 21 0
2 14 0
-14 -24 0
13 -7 0
20 -8 0
-13 22 0
-34 29 0
1 19 0
34 10 0
-19 -5 0
11 16 0
-13 33 0
-18 -33 0
7 -17 0
-34 -8 0
27 -10 0
3 33 0
-22 10 0
-27 1 0
-11 32 0
-33 32 0
-8 12 0
-10 35 0
-10 19 0
12 19 0
-2 33 0
-10 -1 0
-10 -19 0
11 21 0
28 6 0
-29 -5 0
-21 7 0
-7 -13 0
14 35 0
-29 10 0
27 -12 0
26 8 0
-16 -9 0
-11 18 0
9 18 0
-7 30 0
-34 -22 0
8 25 0
28 35 0
-30 11 0
-8 2 0
7 9 0
-25 5 0
-30 12 0
-5 -20 0
31 -1 0
12 18 0
-13 21 0
25 20 0
-10 35 0
4 -25 0
29 35 0
4 -33 0
9 33 0
-7 -1 0
-22 5 0
32 25 0
27 -17 0
13 18 0
2 -14 0
6 32 0
21 -19 0
-28 -31 0
30 -16 0
18 -24 0
-13 18 0
31 22 0
18 -29 0
-17 -3 0
-30 -31 0
29 -8 0
-6 28 0
27 35 0
-28 29 0
24 -7 0
