c PROBLEM_035_090_37  vars=35  clausulas=90  k=2
p cnf 35 90
-9 27 0
-11 1 0
-28 17 0
34 -13 0
-21 -13 0
-19 10 0
-24 27 0
12 6 0
35 -1 0
-4 -33 0
5 -26 0
3 -11 0
-1 -35 0
5 -35 0
-6 -30 0
-19 -2 0
-23 11 0
-1 -27 0
16 -2 0
19 -34 0
-21 22 0
-6 14 0
5 23 0
-28 -8 0
-7 29 0
25 -26 0
23 16 0
4 -25 0
-32 -14 0
12 27 0
13 -19 0
-3 14 0
-27 30 0
4 2 0
-15 30 0
33 22 0
14 -20 0
-20 -5 0
-3 5 0
-32 -18 0
16 -28 0
-12 1 0
3 20 0
8 32 0
33 -6 0
-32 8 0
30 8 0
-8 -23 0
-16 24 0
-7 6 0
8 -4 0
-6 -18 0
-13 15 0
-21 10 0
-10 -19 0
9 27 0
9 -16 0
-17 -16 0
-6 -12 0
-7 -13 0
-31 23 0
5 24 0
-11 20 0
22 33 0
-28 13 0
-34 17 0
-3 21 0
3 -26 0
3 35 0
27 -6 0
30 31 0
6 30 0
-2 19 0
-17 -10 0
-21 -17 0
-15 -14 0
-35 6 0
4 -17 0
-7 35 0
-24 3 0
-27 -5 0
7 -29 0
35 33 0
29 13 0
-14 31 0
-27 3 0
7 26 0
35 14 0
9 8 0
-22 12 0
