c PROBLEM_035_090_46  vars=35  clausulas=90  k=2
p cnf 35 90
7 24 0
27 22 0
28 -1 0
3 1 0
4 -22 0
-26 34 0
32 3 0
-6 18 0
5 16 0
-1 -18 0
14 -4 0
-3 -5 0
34 -20 0
-26 -21 0
-2 25 0
31 33 0
6 -35 0
-31 -19 0
2 -31 0
24 -31 0
-25 14 0
30 10 0
27 11 0
-15 10 0
15 20 0
-29 -18 0
-19 -27 0
33 6 0
-24 -5 0
-11 13 0
5 -19 0
-12 3 0
16 15 0
-1 -19 0
21 -11 0
-35 -25 0
-5 1 0
-11 7 0
-29 19 0
22 -8 0
9 -3 0
14 30 0
-3 -15 0
18 11 0
26 -22 0
4 21 0
32 19 0
-24 -14 0
12 -3 0
-33 26 0
23 -12 0
18 26 0
9 -12 0
18 12 0
-8 -33 0
13 8 0
-29 19 0
-16 -26 0
-14 23 0
23 -28 0
-5 -1 0
16 -29 0
-22 -8 0
35 22 0
8 29 0
-18 29 0
29 -25 0
19 -31 0
11 13 0
32 -4 0
17 34 0
-23 11 0
15 3 0
10 35 0
32 -6 0
-30 17 0
-20 -23 0
30 5 0
27 -10 0
16 -3 0
-12 35 0
7 -34 0
-10 -7 0
22 24 0
-13 -2 0
33 2 0
4 28 0
18 17 0
26 21 0
-35 12 0
