c PROBLEM_035_090_34  vars=35  clausulas=90  k=2
p cnf 35 90
-28 7 0
-24 -17 0
16 26 0
15 24 0
-3 14 0
-24 -31 0
-35 -21 0
-1 -22 0
3 18 0
31 11 0
4 30 0
-15 32 0
9 16 0
-19 -11 0
-15 -29 0
2 7 0
34 -19 0
28 -18 0
1 -33 0
20 17 0
13 30 0
-6 17 0
6 32 0
-31 21 0
-2 35 0
-29 -26 0
-28 -4 0
-16 -19 0
21 -20 0
-33 32 0
15 -26 0
24 29 0
-2 26 0
21 -10 0
35 8 0
-25 -15 0
-9 3 0
-14 15 0
30 -12 0
-10 6 0
11 23 0
35 10 0
-25 -22 0
-10 -1 0
-35 -16 0
19 32 0
-24 -4 0
-30 29 0
-28 22 0
-17 10 0
24 -29 0
1 27 0
-8 -23 0
3 10 0
5 3 0
11 31 0
-29 33 0
28 24 0
-15 25 0
9 -8 0
-31 -33 0
-11 2 0
-7 15 0
15 -12 0
-18 -12 0
-35 -16 0
-11 35 0
-33 -7 0
12 -17 0
25 -31 0
12 26 0
34 18 0
11 -5 0
8 28 0
-3 -22 0
-20 19 0
-26 -15 0
-34 25 0
-8 -16 0
-7 -4 0
-7 21 0
-30 -32 0
11 -15 0
34 -5 0
12 16 0
-13 30 0
34 -20 0
7 -28 0
-13 24 0
-2 3 0
