c PROBLEM_035_090_45  vars=35  clausulas=90  k=2
p cnf 35 90
8 -33 0
-14 -2 0
19 11 0
14 29 0
-32 -24 0
22 -6 0
-16 -24 0
-8 -11 0
26 35 0
29 -19 0
-17 25 0
15 5 0
-1 22 0
19 33 0
35 -3 0
-12 -25 0
-15 -29 0
-30 29 0
-28 -34 0
-4 -28 0
-34 1 0
-8 10 0
-26 -4 0
-2 23 0
-15 7 0
9 33 0
-15 29 0
3 22 0
-22 14 0
-11 -19 0
-11 9 0
8 2 0
-28 -17 0
30 21 0
-19 25 0
-29 -5 0
1 9 0
-28 27 0
11 -4 0
19 -3 0
13 27 0
-35 -31 0
24 1 0
8 -18 0
-13 -14 0
3 -23 0
-9 -17 0
19 2 0
25 34 0
6 29 0
15 22 0
5 -22 0
4 -28 0
1 -23 0
23 -11 0
-1 27 0
-32 -28 0
-31 -32 0
19 -16 0
25 -21 0
-33 20 0
5 11 0
18 -15 0
-31 25 0
30 -12 0
9 20 0
27 -6 0
32 34 0
16 34 0
20 33 0
-5 -7 0
-16 20 0
-33 -24 0
-29 -12 0
-22 -8 0
-4 15 0
-1 18 0
25 -3 0
6 -18 0
13 30 0
5 -10 0
35 4 0
-19 20 0
13 31 0
3 16 0
15 4 0
-28 -29 0
-8 6 0
-13 2 0
-20 -27 0
