c PROBLEM_035_090_20  vars=35  clausulas=90  k=2
p cnf 35 90
-3 -30 0
27 20 0
-24 23 0
1 -16 0
-6 22 0
11 7 0
34 -6 0
-30 -1 0
18 1 0
35 -24 0
21 19 0
19 -32 0
28 -6 0
1 -28 0
-32 -17 0
16 28 0
-32 -11 0
-26 2 0
-4 -18 0
33 32 0
-28 -29 0
-27 -33 0
-34 -35 0
-27 30 0
-18 -26 0
26 35 0
15 -7 0
-22 -25 0
15 3 0
-29 -7 0
10 -3 0
16 -18 0
15 27 0
-10 21 0
14 -26 0
27 1 0
-7 9 0
20 -6 0
19 -15 0
-23 -29 0
1 -35 0
14 -6 0
-4 -20 0
-16 3 0
-16 21 0
30 -35 0
30 6 0
-14 17 0
29 -7 0
9 26 0
-18 -23 0
-4 -26 0
7 11 0
-5 -12 0
11 6 0
1 -2 0
-7 20 0
-29 -28 0
17 10 0
-17 12 0
7 -24 0
-19 -26 0
-18 26 0
-9 -32 0
-22 3 0
34 27 0
-2 7 0
32 13 0
-26 -1 0
-35 30 0
-26 -18 0
31 26 0
30 8 0
33 -13 0
-30 3 0
-28 31 0
-3 -1 0
-10 20 0
20 -35 0
-12 -17 0
-20 21 0
1 -23 0
-26 21 0
-4 23 0
1 -23 0
-29 -9 0
16 -12 0
-24 -6 0
-21 32 0
-2 -3 0
