c PROBLEM_035_090_03  vars=35  clausulas=90  k=2
p cnf 35 90
-2 29 0
-19 23 0
-18 -8 0
17 -26 0
12 -18 0
-20 -30 0
-28 6 0
-17 31 0
19 -26 0
26 1 0
24 35 0
-23 -12 0
30 -3 0
12 -21 0
10 -18 0
-4 12 0
-27 -10 0
-10 -4 0
9 -24 0
-4 6 0
28 22 0
35 32 0
13 -7 0
-14 19 0
-7 -2 0
25 -35 0
7 26 0
-15 -6 0
-25 -29 0
-26 28 0
19 18 0
-32 -13 0
-18 24 0
-6 11 0
18 23 0
-1 -16 0
-27 17 0
-28 -10 0
12 2 0
-3 -5 0
-34 9 0
-23 1 0
-2 -32 0
18 6 0
-29 -28 0
-32 -26 0
32 17 0
-15 -25 0
-17 27 0
-17 34 0
25 19 0
-14 -28 0
24 -19 0
-29 -9 0
-16 18 0
29 -4 0
2 13 0
18 -9 0
-14 -16 0
-24 -13 0
-32 19 0
30 35 0
-1 -32 0
12 2 0
-16 -1 0
21 34 0
-30 -26 0
-31 -35 0
-24 7 0
-30 -33 0
31 34 0
-32 10 0
-15 -6 0
-32 5 0
4 16 0
29 32 0
22 3 0
-18 7 0
-9 13 0
-3 16 0
-35 33 0
30 20 0
6 15 0
-8 -11 0
-30 -19 0
8 -17 0
30 -17 0
-18 -23 0
21 3 0
-28 21 0
