c PROBLEM_035_090_24  vars=35  clausulas=90  k=2
p cnf 35 90
-22 -10 0
-21 23 0
-32 14 0
6 33 0
-22 19 0
-27 -13 0
11 26 0
20 -11 0
-3 -32 0
-4 28 0
33 12 0
21 29 0
27 4 0
-5 27 0
29 21 0
9 -17 0
-18 -7 0
-33 15 0
15 34 0
-35 -20 0
-27 -9 0
12 -18 0
-4 17 0
-34 24 0
7 -25 0
-23 34 0
-7 28 0
10 -29 0
13 22 0
-11 -14 0
11 13 0
-31 -3 0
33 35 0
7 -5 0
31 -6 0
-16 -31 0
-26 2 0
-23 15 0
8 -14 0
-30 -17 0
-33 -14 0
-23 25 0
-1 -15 0
2 -30 0
23 -8 0
28 27 0
8 19 0
-31 35 0
31 10 0
-25 11 0
27 8 0
-1 -18 0
-23 -32 0
16 -33 0
-19 3 0
23 6 0
21 9 0
-1 32 0
-3 12 0
33 -26 0
-24 21 0
-20 27 0
-30 26 0
-26 14 0
-15 31 0
-12 11 0
-1 -7 0
-35 -23 0
-12 32 0
9 29 0
2 -29 0
13 -17 0
-33 30 0
-1 -21 0
-30 1 0
7 21 0
-34 -19 0
-5 -25 0
8 -5 0
3 5 0
15 13 0
-10 -28 0
-28 -19 0
-12 4 0
-27 -15 0
-9 -6 0
-7 11 0
16 -20 0
29 13 0
29 4 0
