c PROBLEM_035_090_16  vars=35  clausulas=90  k=2
p cnf 35 90
-29 -31 0
-11 18 0
-11 12 0
-24 23 0
-16 -28 0
3 -32 0
-16 1 0
-28 10 0
18 7 0
-6 -35 0
33 2 0
34 -20 0
22 12 0
29 5 0
13 -34 0
-26 4 0
35 15 0
31 -19 0
29 -23 0
7 -10 0
14 -9 0
-19 -33 0
-12 -6 0
14 -23 0
17 -10 0
-31 21 0
29 26 0
-12 -14 0
-1 29 0
-28 -30 0
-14 11 0
-21 3 0
29 7 0
-31 -3 0
-9 -25 0
-3 -1 0
18 4 0
-5 20 0
1 25 0
28 -13 0
1 33 0
-24 -15 0
-15 31 0
-35 34 0
6 27 0
33 -22 0
21 -27 0
19 23 0
9 33 0
4 -34 0
-8 28 0
30 -7 0
-7 -34 0
-33 -21 0
20 31 0
-34 -14 0
19 -35 0
25 2 0
3 15 0
10 32 0
30 18 0
24 -7 0
23 -31 0
-5 -30 0
-27 3 0
-23 33 0
-27 -28 0
-1 9 0
35 27 0
-15 -31 0
-3 32 0
-31 14 0
-16 -23 0
-11 9 0
13 -8 0
-35 -14 0
-6 -18 0
8 -19 0
31 -15 0
23 -5 0
-12 -9 0
-6 28 0
-30 -7 0
23 8 0
-7 8 0
15 5 0
-8 22 0
20 10 0
-32 -19 0
32 -4 0
