c PROBLEM_035_090_35  vars=35  clausulas=90  k=2
p cnf 35 90
33 3 0
-15 -35 0
18 -9 0
-5 -23 0
9 -26 0
26 11 0
14 -34 0
-16 28 0
21 32 0
-4 -27 0
-13 2 0
-21 -15 0
-18 -1 0
18 -10 0
12 -8 0
-31 -23 0
-32 -23 0
-20 -18 0
6 33 0
28 -2 0
-3 23 0
14 10 0
-19 -10 0
-20 -27 0
19 24 0
-23 35 0
-8 9 0
-24 34 0
-35 18 0
-28 9 0
15 1 0
25 19 0
5 18 0
2 -28 0
-6 10 0
1 -18 0
-22 -9 0
-10 -25 0
34 24 0
26 -29 0
-13 4 0
4 -6 0
-33 19 0
-23 -4 0
31 -32 0
1 -22 0
-22 -9 0
-17 -14 0
-11 -7 0
16 -26 0
20 -24 0
-10 25 0
-24 -5 0
-17 -35 0
32 19 0
-2 -22 0
18 16 0
27 -24 0
7 -6 0
-4 -10 0
-10 25 0
15 -9 0
-30 -34 0
-5 -19 0
11 30 0
25 -9 0
-30 19 0
-7 -9 0
22 30 0
-13 -11 0
2 10 0
-25 -29 0
1 18 0
3 -11 0
-18 35 0
18 -27 0
8 -14 0
-19 -27 0
34 13 0
-31 27 0
30 9 0
-27 -28 0
18 -4 0
-6 -32 0
-15 2 0
19 -13 0
-27 -6 0
2 17 0
16 -13 0
-18 -5 0
