c PROBLEM_035_090_29  vars=35  clausulas=90  k=2
p cnf 35 90
22 -32 0
8 -33 0
-31 21 0
13 31 0
17 6 0
33 7 0
22 20 0
-10 -24 0
19 -14 0
22 19 0
-27 15 0
14 -24 0
-2 -12 0
12 10 0
15 29 0
-12 29 0
19 15 0
-34 19 0
-32 -20 0
-11 5 0
26 24 0
17 30 0
-4 -19 0
17 8 0
18 9 0
11 -22 0
14 -27 0
22 16 0
-26 -32 0
-11 30 0
-9 32 0
-17 -10 0
-8 2 0
4 -9 0
-6 4 0
32 1 0
-25 28 0
-12 -24 0
-33 -2 0
-32 33 0
4 -19 0
-30 4 0
-32 12 0
-22 -30 0
3 16 0
8 -17 0
31 -14 0
-28 17 0
-9 -1 0
22 -30 0
29 -34 0
-23 -17 0
-4 28 0
25 30 0
-4 13 0
29 2 0
-24 -6 0
-8 -11 0
-23 24 0
-28 11 0
-13 -26 0
-22 5 0
18 12 0
-35 -27 0
24 -20 0
-3 18 0
5 -31 0
1 21 0
-19 -29 0
5 -27 0
32 -33 0
-28 7 0
-26 20 0
28 27 0
-8 -11 0
-7 35 0
12 22 0
-19 -14 0
-26 -5 0
-14 -30 0
26 13 0
17 -18 0
-27 -16 0
-8 -10 0
-26 23 0
22 23 0
9 1 0
24 -35 0
1 35 0
28 11 0
