c PROBLEM_035_090_04  vars=35  clausulas=90  k=2
p cnf 35 90
-33 -3 0
-20 7 0
27 -1 0
-20 17 0
23 16 0
30 -16 0
-11 -3 0
-28 16 0
-35 1 0
19 25 0
-2 24 0
22 -35 0
17 18 0
26 -27 0
-21 -6 0
-9 -24 0
23 -4 0
25 31 0
-10 28 0
29 -5 0
33 -21 0
-31 -27 0
2 -5 0
-22 -6 0
1 10 0
-8 15 0
7 -15 0
-12 2 0
2 5 0
-9 6 0
-34 -32 0
3 -14 0
11 -19 0
-2 -16 0
26 -3 0
22 -28 0
9 -3 0
27 14 0
-12 -2 0
-25 35 0
-22 -1 0
3 11 0
-12 31 0
11 -26 0
-28 30 0
26 32 0
-22 -33 0
30 33 0
-32 -8 0
-2 -23 0
8 1 0
-12 29 0
-32 -29 0
14 -34 0
-7 -9 0
-14 -8 0
18 -1 0
20 -5 0
-14 7 0
8 -31 0
11 28 0
15 -25 0
32 13 0
-20 -29 0
1 -26 0
-15 -21 0
-4 28 0
15 -16 0
-35 -27 0
12 14 0
2 -6 0
14 -30 0
30 -31 0
-26 12 0
7 -18 0
7 6 0
16 13 0
-7 26 0
11 13 0
-23 -35 0
5 4 0
24 -35 0
27 10 0
20 -28 0
28 -7 0
-10 -26 0
20 23 0
8 -2 0
-29 9 0
15 7 0
