c PROBLEM_035_090_28  vars=35  clausulas=90  k=2
p cnf 35 90
16 2 0
2 -7 0
16 6 0
-10 14 0
-10 34 0
24 -1 0
20 29 0
-31 -2 0
-10 -26 0
30 -6 0
14 15 0
-27 13 0
-34 6 0
-3 1 0
33 -19 0
13 -9 0
-3 -12 0
2 -5 0
13 -11 0
4 -33 0
25 22 0
34 14 0
-30 21 0
-13 30 0
6 -14 0
-10 -16 0
9 1 0
-4 -23 0
19 -18 0
-10 3 0
-23 28 0
26 13 0
-32 -18 0
-25 -17 0
-22 -30 0
-10 1 0
27 -2 0
-33 -2 0
30 20 0
30 8 0
-19 28 0
20 35 0
-19 22 0
3 -31 0
2 35 0
18 -30 0
34 -19 0
-15 -2 0
26 18 0
-30 -15 0
-20 -10 0
13 22 0
21 -24 0
-4 18 0
-35 6 0
-4 11 0
7 8 0
23 -17 0
-34 -31 0
20 -10 0
-30 -29 0
-2 -15 0
-12 21 0
-15 -17 0
-32 6 0
-4 1 0
10 -29 0
-20 -23 0
12 -9 0
27 22 0
10 11 0
30 23 0
9 -15 0
3 -25 0
16 1 0
15 3 0
-34 -21 0
-18 19 0
-19 -26 0
27 -23 0
-13 -23 0
-32 -28 0
10 35 0
33 18 0
5 -17 0
33 17 0
9 -27 0
3 2 0
-26 -21 0
-11 6 0
