c PROBLEM_035_090_48  vars=35  clausulas=90  k=2
p cnf 35 90
-2 -32 0
2 18 0
21 22 0
-4 13 0
-30 -20 0
-26 7 0
-12 -23 0
-2 32 0
-13 22 0
-12 -31 0
7 17 0
-13 6 0
-2 -19 0
35 18 0
34 18 0
22 -8 0
9 26 0
13 5 0
-17 -11 0
-16 8 0
-2 -5 0
-34 24 0
-29 7 0
12 14 0
20 15 0
-34 4 0
13 7 0
-6 23 0
31 -35 0
-21 -11 0
-13 -3 0
16 23 0
9 -35 0
-14 -13 0
18 9 0
-29 -10 0
-14 -29 0
-18 -15 0
1 -32 0
-17 16 0
1 -29 0
-9 1 0
12 -6 0
-14 13 0
26 -34 0
-27 -14 0
23 -11 0
-9 16 0
-19 -5 0
-14 26 0
33 -27 0
4 -2 0
-29 -27 0
-7 22 0
-14 -8 0
8 6 0
5 20 0
23 -18 0
21 -28 0
9 18 0
-6 29 0
-9 -33 0
28 -8 0
-35 -28 0
25 -20 0
4 -16 0
-25 33 0
-5 -31 0
7 33 0
-24 -10 0
-32 24 0
7 13 0
10 -8 0
17 -31 0
-34 25 0
-14 3 0
-29 25 0
20 6 0
-29 -22 0
35 28 0
-11 28 0
-11 28 0
29 -27 0
-2 14 0
19 12 0
-19 31 0
-27 14 0
14 29 0
15 24 0
-25 14 0
