c PROBLEM_035_090_06  vars=35  clausulas=90  k=2
p cnf 35 90
-23 33 0
28 -34 0
-11 18 0
16 -12 0
-24 20 0
28 21 0
-6 -12 0
31 16 0
-15 -21 0
27 -33 0
-7 25 0
19 -31 0
-10 -3 0
-26 -23 0
-31 -24 0
-13 31 0
-28 23 0
10 3 0
-18 -30 0
-32 -19 0
1 31 0
27 -8 0
14 23 0
-25 5 0
17 26 0
-13 -10 0
26 -4 0
-19 -22 0
-35 -28 0
-29 -3 0
12 -29 0
32 23 0
-21 -34 0
31 -28 0
-28 1 0
-12 -33 0
33 9 0
6 30 0
-12 26 0
-5 26 0
7 -12 0
24 -27 0
-9 -8 0
-20 4 0
30 17 0
2 29 0
-33 -8 0
34 -1 0
2 -18 0
-11 8 0
30 26 0
19 -21 0
-17 5 0
-22 -17 0
18 -2 0
-12 25 0
-27 21 0
25 -26 0
-13 -14 0
-14 -9 0
-2 -12 0
28 -15 0
-20 -35 0
-35 1 0
-4 -8 0
-27 13 0
-22 -16 0
6 17 0
-28 -26 0
6 -33 0
-12 -15 0
18 26 0
-6 -28 0
-16 -26 0
35 -26 0
-11 24 0
32 18 0
-15 -20 0
21 -12 0
-33 -30 0
-1 4 0
-11 -22 0
29 -20 0
21 -29 0
-25 26 0
-3 -28 0
21 16 0
-24 4 0
-23 2 0
3 23 0
