c PROBLEM_035_090_19  vars=35  clausulas=90  k=2
p cnf 35 90
28 4 0
24 -35 0
-31 -18 0
-16 -20 0
9 8 0
-7 9 0
-33 -4 0
17 24 0
3 -32 0
4 31 0
-30 2 0
20 32 0
-10 -3 0
-33 -35 0
-8 32 0
-11 22 0
1 3 0
12 -19 0
-10 -22 0
-3 -32 0
-4 33 0
-14 15 0
7 -35 0
-21 11 0
-23 -4 0
18 -25 0
12 -21 0
-30 4 0
30 20 0
5 -27 0
6 -25 0
15 -11 0
35 28 0
-29 10 0
-19 15 0
31 1 0
-29 1 0
-32 23 0
-30 -18 0
-10 13 0
22 -19 0
20 19 0
4 30 0
15 5 0
15 -23 0
10 29 0
19 11 0
21 25 0
-7 30 0
-13 9 0
29 -28 0
-1 -6 0
-28 -32 0
3 34 0
6 -3 0
21 -20 0
-30 -26 0
13 -10 0
-12 -30 0
30 -28 0
33 -1 0
27 35 0
31 -34 0
-12 -31 0
-15 23 0
9 -16 0
21 24 0
-13 -6 0
17 22 0
4 5 0
2 -14 0
-29 3 0
-19 -4 0
-16 23 0
3 -19 0
35 11 0
-27 -10 0
30 -18 0
-13 27 0
14 -34 0
-6 -15 0
16 -26 0
35 2 0
5 -8 0
-6 12 0
-23 29 0
15 -28 0
-23 21 0
-35 21 0
18 32 0
