c PROBLEM_035_090_05  vars=35  clausulas=90  k=2
p cnf 35 90
-26 34 0
13 -35 0
3 10 0
3 -9 0
2 20 0
-30 -22 0
20 4 0
11 9 0
35 -32 0
30 -31 0
14 13 0
-33 35 0
19 32 0
-28 22 0
22 -28 0
-34 8 0
27 5 0
15 10 0
-7 21 0
35 12 0
15 23 0
-28 -23 0
18 -15 0
-19 15 0
-11 30 0
19 22 0
-34 -20 0
35 -21 0
1 -29 0
-5 1 0
14 -3 0
10 12 0
-4 15 0
-35 -17 0
25 30 0
13 17 0
12 21 0
-13 -34 0
-20 35 0
21 28 0
21 -2 0
31 -35 0
-21 -19 0
26 -30 0
-15 -2 0
-20 -34 0
21 14 0
1 7 0
-6 -29 0
16 -14 0
-4 -3 0
-20 -5 0
11 -23 0
-18 26 0
-13 23 0
8 -19 0
28 -6 0
-21 13 0
-7 -19 0
3 34 0
23 34 0
25 2 0
14 -7 0
-26 2 0
11 30 0
30 -16 0
15 3 0
-1 -25 0
-11 -14 0
27 -15 0
-6 -9 0
34 7 0
-31 28 0
-8 -19 0
31 13 0
-20 -25 0
27 -29 0
-15 24 0
32 -24 0
-33 -8 0
-13 18 0
1 32 0
5 26 0
6 29 0
6 -28 0
-15 -19 0
32 15 0
35 -4 0
27 29 0
31 27 0
