c PROBLEM_035_090_11  vars=35  clausulas=90  k=2
p cnf 35 90
-32 7 0
-32 -22 0
-35 -10 0
4 -21 0
19 35 0
11 -9 0
30 9 0
23 -13 0
-2 12 0
-19 -20 0
19 -18 0
18 -30 0
-13 33 0
7 -24 0
29 2 0
20 -1 0
22 -5 0
-29 10 0
21 -13 0
4 30 0
28 31 0
-16 -17 0
-7 -24 0
28 23 0
-26 -14 0
10 -6 0
-12 -34 0
16 35 0
-13 3 0
-18 -7 0
-20 -5 0
5 -17 0
-33 -23 0
-15 24 0
-9 34 0
30 7 0
-22 25 0
2 27 0
25 -17 0
27 -12 0
35 -20 0
-15 -29 0
-27 -8 0
-24 5 0
-35 29 0
1 -13 0
-27 34 0
-26 -17 0
3 18 0
27 29 0
-4 3 0
34 15 0
-3 -25 0
11 -32 0
17 -23 0
23 17 0
13 -14 0
14 -24 0
-7 4 0
-6 -4 0
-19 -23 0
35 27 0
-11 17 0
-9 -18 0
26 -27 0
10 20 0
22 10 0
-3 -29 0
4 21 0
-15 12 0
-3 -7 0
27 1 0
28 -24 0
-25 21 0
17 9 0
12 13 0
-2 -9 0
-19 10 0
-31 12 0
-28 -4 0
11 -13 0
-24 -13 0
-7 1 0
-14 32 0
-31 2 0
28 34 0
-13 -2 0
-26 -17 0
13 8 0
-18 32 0
