c PROBLEM_035_090_18  vars=35  clausulas=90  k=2
p cnf 35 90
-2 32 0
33 -10 0
2 -1 0
31 16 0
6 -18 0
8 -7 0
-33 -6 0
-25 12 0
17 -31 0
-19 -29 0
16 9 0
-2 4 0
-14 35 0
22 32 0
-4 5 0
34 4 0
29 -18 0
-23 -1 0
17 -34 0
-19 34 0
16 34 0
-24 -1 0
26 -19 0
-22 -32 0
22 -15 0
-19 -1 0
-21 10 0
-8 12 0
26 30 0
5 27 0
-4 12 0
21 -22 0
27 13 0
5 20 0
-34 13 0
-25 -24 0
-35 -33 0
-15 -13 0
7 -5 0
-28 -33 0
-4 -18 0
-15 19 0
-31 17 0
18 16 0
-4 -14 0
-19 -16 0
-16 -13 0
-27 -9 0
-27 -22 0
-10 6 0
-35 -23 0
-6 -25 0
-26 -22 0
-16 -11 0
35 -20 0
-23 -7 0
-2 -34 0
-8 -10 0
-21 -33 0
-23 -10 0
-22 -28 0
21 -16 0
3 -28 0
31 -13 0
-32 3 0
-3 -4 0
-20 -32 0
-2 1 0
27 -26 0
-16 -30 0
-15 30 0
22 25 0
31 -25 0
-18 -8 0
25 22 0
-22 11 0
-3 -19 0
9 23 0
20 12 0
16 -29 0
-21 24 0
-31 -29 0
1 15 0
-26 -2 0
15 22 0
27 -20 0
-2 -17 0
-7 -14 0
-27 28 0
-9 -7 0
