c PROBLEM_010_090_33  vars=10  clausulas=90  k=2
p cnf 10 90
-6 7 0
10 -2 0
-7 8 0
-6 -7 0
-5 10 0
9 6 0
4 -10 0
2 9 0
10 5 0
-2 10 0
-1 -2 0
-4 -6 0
10 -1 0
2 10 0
-3 5 0
-6 -7 0
1 2 0
-10 -3 0
5 -8 0
-9 7 0
-6 7 0
-4 -3 0
-4 -1 0
4 -3 0
-5 -3 0
3 1 0
-6 7 0
-5 9 0
7 -4 0
6 -1 0
6 -7 0
3 5 0
7 4 0
-6 1 0
-6 5 0
7 3 0
3 1 0
-9 -8 0
-9 -8 0
7 3 0
5 -10 0
1 -5 0
5 6 0
-6 -3 0
-1 6 0
10 -3 0
-8 3 0
-9 8 0
7 -9 0
-9 -7 0
5 -7 0
5 -9 0
4 -10 0
-2 8 0
-7 5 0
-2 -8 0
8 3 0
7 -10 0
-7 -5 0
-1 8 0
1 -5 0
5 10 0
9 -4 0
-9 -3 0
5 -3 0
-7 2 0
9 -8 0
-8 -6 0
-9 -5 0
3 -9 0
-7 -10 0
-10 7 0
-4 3 0
-10 -2 0
5 7 0
2 1 0
-4 8 0
-8 -9 0
2 8 0
10 -1 0
-1 -2 0
-4 8 0
3 6 0
10 -2 0
-8 -5 0
5 3 0
4 6 0
3 7 0
-10 8 0
5 9 0
