c PROBLEM_010_090_02  vars=10  clausulas=90  k=2
p cnf 10 90
5 3 0
-10 6 0
2 -7 0
-8 3 0
1 5 0
10 2 0
10 8 0
8 -3 0
-2 -4 0
-5 9 0
9 4 0
3 6 0
-9 -1 0
9 -5 0
-1 -5 0
-5 -1 0
10 -1 0
-4 -3 0
6 3 0
4 7 0
7 -5 0
5 3 0
8 6 0
10 3 0
-4 8 0
7 -9 0
-7 -9 0
-4 3 0
-1 -2 0
-10 -4 0
-4 10 0
-2 -3 0
-4 -2 0
6 -10 0
1 -5 0
3 6 0
5 -2 0
-7 -2 0
-5 -10 0
5 -2 0
6 2 0
-9 -4 0
3 10 0
9 6 0
2 -9 0
1 5 0
9 -3 0
-10 -6 0
8 10 0
6 -5 0
3 -9 0
10 -4 0
7 -9 0
10 7 0
-9 4 0
4 9 0
1 -9 0
6 1 0
-4 9 0
8 10 0
-9 -5 0
3 10 0
4 9 0
-2 1 0
-4 9 0
-3 9 0
5 9 0
-4 -1 0
-3 9 0
3 4 0
2 8 0
3 -10 0
10 -6 0
-5 -10 0
10 4 0
6 1 0
-8 6 0
10 -8 0
-2 8 0
-4 -9 0
-8 6 0
4 6 0
4 -1 0
-4 8 0
5 3 0
-5 -7 0
6 -7 0
6 9 0
2 5 0
-7 8 0
