c PROBLEM_030_060_10  vars=30  clausulas=60  k=2
p cnf 30 60
20 -12 0
-23 -11 0
2 -6 0
-9 6 0
6 -18 0
-19 -30 0
-26 12 0
-10 -28 0
-23 30 0
-20 25 0
27 19 0
9 -2 0
-14 -29 0
5 -25 0
-9 2 0
-10 -20 0
16 17 0
30 -1 0
30 -18 0
8 17 0
20 5 0
-15 -12 0
25 14 0
-12 -26 0
1 -29 0
-7 22 0
2 -17 0
22 -13 0
7 18 0
13 -6 0
12 -1 0
-14 5 0
10 -28 0
9 25 0
25 22 0
-30 -15 0
-11 23 0
21 22 0
28 -23 0
11 26 0
21 -28 0
-21 2 0
11 -14 0
-16 -7 0
23 27 0
-26 -20 0
-10 30 0
-26 -4 0
-16 -29 0
29 6 0
17 -7 0
-6 28 0
-23 30 0
30 3 0
3 -8 0
2 -7 0
19 -4 0
9 15 0
30 28 0
-24 -18 0
