c PROBLEM_030_060_21  vars=30  clausulas=60  k=2
p cnf 30 60
23 8 0
23 29 0
6 -3 0
-12 14 0
11 -2 0
-3 -29 0
-8 -6 0
12 5 0
-2 23 0
20 -6 0
-19 12 0
-18 -23 0
-17 -8 0
15 -26 0
-18 -29 0
26 -2 0
8 -2 0
-23 -13 0
14 -8 0
-19 -9 0
15 26 0
17 8 0
-25 28 0
21 -4 0
-13 12 0
-16 30 0
-7 13 0
15 -9 0
24 -29 0
-16 -11 0
18 16 0
-1 -2 0
-12 26 0
-22 4 0
10 11 0
10 30 0
24 -1 0
-22 -14 0
20 -4 0
-24 12 0
-25 -1 0
-21 -17 0
-24 -20 0
-21 22 0
28 27 0
-23 9 0
6 20 0
-30 11 0
-9 -10 0
19 11 0
12 18 0
-12 16 0
12 -13 0
23 -5 0
-15 11 0
-24 -6 0
10 3 0
-6 -5 0
13 11 0
17 4 0
