c PROBLEM_030_060_43  vars=30  clausulas=60  k=2
p cnf 30 60
26 25 0
-22 30 0
-27 5 0
10 17 0
5 15 0
-28 -4 0
24 -6 0
-12 17 0
30 -19 0
7 29 0
15 22 0
-8 27 0
-18 26 0
13 12 0
-7 -5 0
-5 -3 0
-5 13 0
-22 -2 0
23 18 0
-4 -27 0
2 14 0
-5 -25 0
17 -6 0
-16 24 0
-20 19 0
-22 -7 0
-10 27 0
-16 -5 0
25 24 0
21 4 0
-9 -7 0
-30 -5 0
-17 30 0
-25 -18 0
-6 -4 0
17 -24 0
14 1 0
8 -20 0
25 1 0
28 -17 0
-2 19 0
-29 18 0
25 -14 0
-16 19 0
-16 18 0
16 15 0
27 -3 0
15 13 0
-7 -11 0
4 -17 0
28 26 0
-7 13 0
8 5 0
10 20 0
-1 22 0
-13 -3 0
20 2 0
-3 -11 0
-19 -6 0
16 -4 0
