c PROBLEM_030_060_26  vars=30  clausulas=60  k=2
p cnf 30 60
15 -12 0
23 -7 0
-16 -17 0
-5 14 0
-9 30 0
15 26 0
22 1 0
-30 -9 0
14 13 0
-21 26 0
19 17 0
-11 -9 0
-11 -4 0
16 3 0
17 16 0
10 5 0
8 -6 0
-9 28 0
-14 -3 0
22 -12 0
10 5 0
-10 -21 0
-17 -19 0
-19 8 0
24 29 0
-20 1 0
-20 28 0
-4 28 0
26 13 0
27 -19 0
28 -8 0
24 -13 0
-28 -6 0
-19 -30 0
30 19 0
-2 4 0
-18 -5 0
22 -2 0
5 -24 0
-16 -10 0
6 8 0
-7 -4 0
-9 -16 0
-19 27 0
10 7 0
29 30 0
12 -15 0
-22 -14 0
-5 -4 0
-1 -11 0
21 -25 0
-20 10 0
30 -4 0
24 -1 0
-26 27 0
2 26 0
-7 -17 0
-14 18 0
-3 -1 0
-22 24 0
