c PROBLEM_030_060_22  vars=30  clausulas=60  k=2
p cnf 30 60
-2 27 0
26 -28 0
-29 19 0
-7 22 0
7 -1 0
19 15 0
-16 4 0
5 6 0
-8 26 0
-11 4 0
11 -28 0
19 -30 0
29 -12 0
23 -14 0
-21 -12 0
-4 13 0
-16 -5 0
-19 4 0
19 -23 0
-6 10 0
-21 -26 0
2 4 0
-9 13 0
-8 22 0
19 4 0
30 24 0
-29 5 0
-4 16 0
-21 20 0
-15 12 0
-14 9 0
22 18 0
-9 -8 0
-13 2 0
14 -29 0
28 14 0
-22 5 0
-4 -12 0
13 -10 0
-27 -6 0
-2 -3 0
-25 -28 0
10 -13 0
11 -18 0
-21 23 0
-3 10 0
-21 -27 0
10 1 0
1 25 0
11 -26 0
-23 6 0
14 -10 0
17 -28 0
-17 -24 0
-26 -1 0
-7 -21 0
-29 -6 0
-6 25 0
-24 9 0
-7 6 0
