c PROBLEM_030_060_06  vars=30  clausulas=60  k=2
p cnf 30 60
12 -25 0
-18 9 0
27 23 0
-5 29 0
-9 -22 0
3 17 0
7 22 0
-12 -8 0
5 -20 0
6 -3 0
21 -19 0
12 20 0
-1 -12 0
-9 21 0
-29 11 0
-3 -30 0
-24 20 0
24 -6 0
-17 -26 0
-4 25 0
12 -13 0
4 -18 0
-2 -6 0
26 8 0
-21 15 0
-8 -18 0
-27 20 0
-24 -14 0
-7 1 0
-26 -23 0
21 -19 0
9 -1 0
-30 19 0
22 -30 0
6 -28 0
10 6 0
18 15 0
-15 -7 0
-5 -24 0
14 4 0
-11 12 0
-16 21 0
-10 18 0
16 13 0
-20 -30 0
27 4 0
24 26 0
-15 -4 0
-18 -21 0
-30 27 0
-27 22 0
20 -25 0
-14 -13 0
10 -14 0
-2 -3 0
-10 27 0
22 -2 0
-20 8 0
29 -10 0
28 -19 0
