c PROBLEM_030_060_01  vars=30  clausulas=60  k=2
p cnf 30 60
-29 -21 0
-8 21 0
19 -12 0
18 -27 0
12 -3 0
-11 7 0
-5 17 0
3 -27 0
14 -11 0
-15 -16 0
27 13 0
11 12 0
-10 11 0
-1 -10 0
-23 -3 0
-26 21 0
28 19 0
5 30 0
30 -24 0
29 -2 0
6 19 0
-4 -29 0
18 -19 0
2 13 0
16 23 0
27 -16 0
-22 16 0
21 23 0
-21 -30 0
-25 29 0
17 -1 0
-17 -2 0
-5 4 0
25 -24 0
13 7 0
13 9 0
-17 -27 0
3 11 0
-17 22 0
18 8 0
-6 15 0
15 9 0
-25 -28 0
20 -19 0
-18 28 0
-11 10 0
24 -29 0
19 -30 0
-13 -18 0
26 -12 0
-25 -17 0
9 -15 0
9 21 0
19 4 0
7 -17 0
4 -2 0
8 -20 0
-29 13 0
-9 -20 0
-10 -18 0
