c PROBLEM_030_060_34  vars=30  clausulas=60  k=2
p cnf 30 60
1 10 0
15 30 0
-8 15 0
-3 -11 0
-9 -5 0
6 18 0
16 5 0
-8 -26 0
-22 -5 0
30 -10 0
-20 18 0
16 29 0
15 -4 0
12 10 0
-8 -12 0
20 -21 0
8 13 0
26 -22 0
19 4 0
28 24 0
-26 23 0
-15 -10 0
-15 -3 0
-14 22 0
23 11 0
-18 9 0
15 16 0
2 30 0
25 -21 0
-29 5 0
-16 28 0
24 -18 0
-30 6 0
27 19 0
-13 -27 0
11 14 0
-6 8 0
16 -13 0
-23 -12 0
19 -24 0
9 -18 0
3 -2 0
19 2 0
7 20 0
-24 7 0
-24 17 0
-25 28 0
-13 -24 0
17 7 0
-6 -3 0
-17 1 0
17 -9 0
-27 -24 0
-15 18 0
14 -11 0
8 22 0
19 -29 0
17 30 0
26 -29 0
-9 13 0
