c PROBLEM_030_060_23  vars=30  clausulas=60  k=2
p cnf 30 60
-4 23 0
-3 6 0
2 3 0
-22 14 0
-6 17 0
16 -26 0
-2 10 0
20 -9 0
-13 27 0
24 -27 0
1 14 0
-8 -9 0
30 3 0
11 5 0
-11 -19 0
29 19 0
6 -26 0
-18 5 0
5 -2 0
-11 -12 0
-17 -16 0
-18 3 0
-26 11 0
7 13 0
-6 -13 0
28 15 0
18 20 0
28 -17 0
-10 2 0
9 -11 0
14 -26 0
25 10 0
-1 26 0
-22 10 0
22 18 0
23 4 0
-8 30 0
-7 17 0
-29 -14 0
25 22 0
-22 -29 0
-25 -27 0
-11 -12 0
-26 -1 0
7 19 0
11 -12 0
-23 22 0
-13 -26 0
-8 -18 0
-28 25 0
-21 -25 0
-28 -21 0
24 -6 0
3 -14 0
18 30 0
-7 15 0
12 -30 0
1 -4 0
5 21 0
-4 14 0
