c PROBLEM_030_060_08  vars=30  clausulas=60  k=2
p cnf 30 60
-2 11 0
13 11 0
-22 16 0
-30 -21 0
-22 6 0
-18 -15 0
14 -7 0
-6 13 0
-16 5 0
-20 -18 0
-19 7 0
5 -28 0
21 2 0
-3 15 0
24 -13 0
25 -29 0
-1 -13 0
24 3 0
-10 7 0
-14 -22 0
2 4 0
-19 17 0
-25 6 0
24 9 0
-11 -4 0
-16 15 0
9 5 0
4 9 0
-10 -7 0
-12 -7 0
-6 -19 0
13 -8 0
12 11 0
-27 21 0
10 -11 0
8 3 0
-21 12 0
19 -25 0
-6 -28 0
-16 -28 0
27 24 0
29 -10 0
-23 -8 0
-2 30 0
-10 -19 0
25 -29 0
-12 15 0
23 29 0
3 -30 0
-27 28 0
-1 -25 0
15 -7 0
23 15 0
-29 25 0
3 -18 0
26 -16 0
-8 -7 0
-13 7 0
6 -4 0
-7 -20 0
