c PROBLEM_030_060_50  vars=30  clausulas=60  k=2
p cnf 30 60
-24 20 0
-29 -20 0
-17 -27 0
-3 -5 0
-28 21 0
19 -17 0
10 -9 0
13 -19 0
-20 -24 0
-3 -1 0
2 11 0
12 1 0
-25 15 0
-2 6 0
-30 -1 0
14 2 0
12 -25 0
12 -20 0
26 17 0
-12 -29 0
6 -16 0
-4 -11 0
-10 -7 0
23 -17 0
6 -25 0
18 -30 0
13 19 0
-24 -11 0
-7 -10 0
-20 4 0
3 -22 0
28 -10 0
-13 22 0
27 -18 0
6 -29 0
29 -16 0
14 -20 0
-9 -27 0
-23 -12 0
4 -28 0
-26 -25 0
8 -19 0
-16 -26 0
7 -25 0
4 15 0
11 17 0
10 6 0
-9 3 0
8 -11 0
-10 -9 0
-17 -20 0
17 -19 0
-13 5 0
-19 -10 0
-15 -12 0
-19 4 0
-21 -5 0
-29 13 0
17 -20 0
10 -14 0
