c PROBLEM_030_060_04  vars=30  clausulas=60  k=2
p cnf 30 60
10 -1 0
-4 -19 0
-15 -9 0
-8 28 0
25 -20 0
4 17 0
-28 -9 0
21 23 0
-7 -12 0
4 -22 0
17 8 0
22 16 0
5 -8 0
-5 -19 0
-25 -26 0
-1 15 0
29 -5 0
8 26 0
10 -28 0
27 16 0
-24 -13 0
18 -25 0
-20 2 0
-27 23 0
1 9 0
8 -27 0
18 -11 0
8 -27 0
-5 -29 0
16 11 0
6 21 0
-6 28 0
-19 9 0
17 29 0
22 23 0
-24 -16 0
-19 -2 0
-26 -27 0
13 19 0
-14 -28 0
15 -26 0
-13 -24 0
-29 -15 0
-29 3 0
-6 -30 0
7 -5 0
29 12 0
10 1 0
-21 -30 0
-26 7 0
-16 19 0
18 6 0
18 22 0
-20 -8 0
-29 -20 0
-17 -12 0
30 3 0
-18 20 0
-10 3 0
-11 -25 0
