c PROBLEM_030_060_47  vars=30  clausulas=60  k=2
p cnf 30 60
-25 1 0
-22 -24 0
-8 -10 0
6 -16 0
11 19 0
20 16 0
-18 29 0
-9 4 0
25 -13 0
-14 -25 0
-6 -11 0
3 -19 0
7 -15 0
19 -8 0
-1 -24 0
-21 11 0
-5 -11 0
8 -4 0
-17 -23 0
13 -26 0
6 -27 0
13 21 0
8 -13 0
-20 28 0
-3 -24 0
-8 12 0
-24 5 0
5 -22 0
11 2 0
30 -25 0
23 -29 0
-21 17 0
-19 -6 0
-6 -2 0
18 17 0
-22 7 0
-14 -12 0
-13 -8 0
25 8 0
-3 27 0
-21 1 0
19 -6 0
24 22 0
-21 -23 0
-7 2 0
20 -5 0
-17 -10 0
23 18 0
30 21 0
-24 16 0
18 21 0
4 -13 0
1 -10 0
22 -13 0
18 -3 0
-15 -16 0
-29 -7 0
1 22 0
7 -1 0
18 22 0
