c PROBLEM_030_060_09  vars=30  clausulas=60  k=2
p cnf 30 60
19 18 0
-10 -9 0
17 -22 0
-7 -24 0
-16 -20 0
-11 -26 0
-1 -13 0
-25 -27 0
17 -1 0
-14 -1 0
17 5 0
-23 2 0
20 22 0
18 -22 0
8 -20 0
-6 23 0
30 -5 0
10 -3 0
-3 18 0
-10 27 0
1 9 0
-19 -13 0
27 -19 0
21 9 0
12 14 0
14 28 0
11 -12 0
2 -15 0
-21 -30 0
16 -24 0
-24 25 0
2 25 0
5 -13 0
-19 -7 0
4 -7 0
4 -24 0
-10 -20 0
-17 -6 0
-19 -22 0
-18 7 0
-4 23 0
20 -5 0
29 -5 0
-12 -11 0
29 -16 0
29 -5 0
-20 4 0
-15 -22 0
-13 -24 0
-12 29 0
18 -29 0
-9 -22 0
-20 9 0
-13 30 0
18 11 0
2 14 0
1 -21 0
8 17 0
-30 -11 0
-16 13 0
