c PROBLEM_030_060_48  vars=30  clausulas=60  k=2
p cnf 30 60
7 -26 0
-30 27 0
9 30 0
11 30 0
22 28 0
20 -4 0
-19 -1 0
-18 -7 0
26 10 0
-3 29 0
13 -14 0
11 14 0
-29 -8 0
-16 -7 0
-11 25 0
-16 1 0
-21 -25 0
7 -6 0
23 -28 0
-27 13 0
4 -22 0
-14 -25 0
-25 21 0
1 -17 0
6 2 0
15 -20 0
24 19 0
16 27 0
27 14 0
-12 28 0
-9 -5 0
3 30 0
17 12 0
-18 30 0
15 23 0
14 -6 0
-11 -3 0
17 -2 0
-20 21 0
27 7 0
-25 -29 0
11 21 0
-23 24 0
13 -7 0
-2 -18 0
-12 29 0
-4 -19 0
19 -20 0
20 -5 0
4 -7 0
7 12 0
-25 11 0
5 -28 0
-20 6 0
30 10 0
-14 28 0
8 -20 0
-5 29 0
-15 19 0
6 -12 0
