c PROBLEM_030_060_38  vars=30  clausulas=60  k=2
p cnf 30 60
10 -18 0
14 -2 0
-2 23 0
18 28 0
1 -20 0
22 -27 0
13 -3 0
11 -16 0
-27 -9 0
2 10 0
-12 2 0
11 -22 0
13 -16 0
-14 -8 0
-12 -17 0
7 -10 0
-4 -25 0
-11 -23 0
10 8 0
-27 4 0
11 -27 0
-3 -2 0
3 -23 0
7 -29 0
6 14 0
-1 3 0
6 14 0
-12 26 0
-29 -23 0
21 -8 0
-25 -10 0
-24 -4 0
-20 -22 0
-8 -11 0
30 6 0
6 13 0
15 30 0
20 4 0
-1 -18 0
1 9 0
-1 -22 0
-27 21 0
6 -8 0
22 -3 0
22 16 0
-19 -23 0
-25 27 0
-5 25 0
21 -16 0
-30 26 0
23 -21 0
-15 12 0
-2 5 0
22 -2 0
-11 26 0
-17 7 0
23 -27 0
-5 28 0
-11 10 0
24 -4 0
