c PROBLEM_030_060_07  vars=30  clausulas=60  k=2
p cnf 30 60
11 10 0
23 -1 0
12 20 0
-27 19 0
-19 -23 0
-6 17 0
5 3 0
10 -3 0
-3 19 0
24 4 0
23 -5 0
10 -26 0
-13 -17 0
-26 29 0
-1 -14 0
-4 -13 0
10 17 0
29 -6 0
-29 21 0
27 -14 0
13 -7 0
15 21 0
-16 7 0
-20 -1 0
20 8 0
7 24 0
10 -7 0
1 23 0
-7 5 0
-19 7 0
-9 18 0
-27 12 0
30 14 0
9 -20 0
25 -26 0
-23 -17 0
-16 -15 0
19 18 0
-4 13 0
-28 -15 0
-18 13 0
-14 26 0
19 -22 0
-3 27 0
-10 21 0
22 4 0
-9 13 0
1 9 0
26 -7 0
2 -30 0
16 30 0
15 -29 0
5 -28 0
22 -24 0
-25 21 0
-3 -20 0
-13 9 0
-10 -11 0
-28 -1 0
16 30 0
