c PROBLEM_030_060_19  vars=30  clausulas=60  k=2
p cnf 30 60
-12 -27 0
-24 -19 0
29 -24 0
29 22 0
-15 6 0
-19 22 0
-20 -18 0
-8 -2 0
-25 -23 0
25 -6 0
8 -19 0
-10 -2 0
12 21 0
-12 -27 0
-26 20 0
13 -6 0
5 -2 0
20 -30 0
-26 12 0
11 2 0
30 14 0
9 -18 0
-26 -14 0
-14 5 0
22 24 0
-7 -8 0
-13 1 0
-20 -11 0
30 -21 0
-7 -9 0
15 11 0
13 -29 0
13 30 0
21 -12 0
-24 17 0
-28 -23 0
6 25 0
2 -23 0
-17 -18 0
17 -13 0
-19 16 0
-3 13 0
28 12 0
-16 24 0
-26 -23 0
1 4 0
-13 4 0
21 -9 0
-8 18 0
-26 8 0
-26 7 0
-12 24 0
-26 25 0
-18 23 0
-30 12 0
14 28 0
-3 -28 0
-6 4 0
-26 -3 0
-14 5 0
