c PROBLEM_030_060_29  vars=30  clausulas=60  k=2
p cnf 30 60
-12 1 0
-23 3 0
27 26 0
-11 15 0
-7 16 0
-22 -9 0
17 11 0
-22 -9 0
18 -24 0
-5 9 0
-2 -29 0
-14 3 0
-15 26 0
-5 8 0
4 -13 0
-3 -4 0
-24 27 0
16 -5 0
-19 -12 0
14 6 0
-20 -6 0
29 -22 0
-27 -26 0
-25 -29 0
-13 -19 0
-8 13 0
9 7 0
-1 -7 0
18 -16 0
-30 29 0
-29 20 0
13 -18 0
23 -29 0
13 -1 0
-3 -25 0
3 24 0
15 24 0
-2 -27 0
-20 10 0
-10 7 0
-5 20 0
-4 30 0
-30 -26 0
-27 12 0
21 -11 0
3 -19 0
9 -18 0
12 -19 0
2 22 0
29 16 0
-21 19 0
6 11 0
23 -25 0
28 -17 0
-2 27 0
-12 -17 0
28 26 0
-27 -13 0
3 22 0
12 -24 0
