c PROBLEM_030_060_03  vars=30  clausulas=60  k=2
p cnf 30 60
-20 -28 0
1 -3 0
15 -14 0
-30 -2 0
8 -27 0
19 17 0
2 -30 0
-23 4 0
29 -27 0
-11 18 0
-29 16 0
23 -17 0
21 -16 0
-3 -18 0
-9 27 0
17 -18 0
21 12 0
28 -27 0
-1 25 0
-10 11 0
8 13 0
23 -14 0
-21 4 0
-15 -17 0
-29 21 0
-12 -19 0
22 24 0
-4 -10 0
5 6 0
-25 26 0
-8 2 0
17 -14 0
-9 26 0
-10 29 0
15 16 0
8 -24 0
-14 11 0
-19 -10 0
26 22 0
-21 18 0
-26 -4 0
13 1 0
-23 -5 0
23 17 0
-7 14 0
-5 10 0
-27 22 0
-3 14 0
13 -22 0
-12 21 0
29 7 0
21 -10 0
-20 -24 0
6 -20 0
1 27 0
19 -28 0
-11 25 0
-28 -9 0
-8 -29 0
-12 -14 0
