c PROBLEM_030_060_33  vars=30  clausulas=60  k=2
p cnf 30 60
-16 -3 0
-5 6 0
-29 -13 0
-10 5 0
23 -12 0
15 -24 0
-5 -9 0
28 -3 0
-24 14 0
17 1 0
5 16 0
-1 11 0
-22 -24 0
3 22 0
18 -23 0
-4 -15 0
23 9 0
-10 27 0
27 -2 0
15 8 0
22 13 0
-16 10 0
-8 17 0
26 -27 0
-20 3 0
25 2 0
16 5 0
-15 -17 0
18 -16 0
6 11 0
30 -25 0
-23 7 0
21 -12 0
24 -12 0
-8 16 0
30 -3 0
11 -14 0
-20 16 0
7 -28 0
-22 13 0
23 13 0
3 -17 0
-7 28 0
-9 -6 0
30 15 0
7 -11 0
26 -20 0
30 15 0
-17 6 0
-22 15 0
13 -23 0
-30 -4 0
6 25 0
11 -8 0
-19 10 0
9 29 0
29 -11 0
-5 -28 0
-10 8 0
-7 -23 0
