c PROBLEM_030_060_27  vars=30  clausulas=60  k=2
p cnf 30 60
-19 -27 0
12 30 0
27 -25 0
-4 -11 0
20 30 0
-29 -17 0
-17 -26 0
4 -7 0
-25 -17 0
-11 7 0
-29 25 0
-25 21 0
-19 -24 0
-14 16 0
18 -22 0
-4 -29 0
-6 -17 0
-14 28 0
15 3 0
6 15 0
-5 12 0
24 -10 0
16 10 0
-28 -5 0
20 24 0
14 -6 0
13 -15 0
-21 10 0
-5 -21 0
-2 15 0
-3 15 0
25 -21 0
-7 8 0
-23 21 0
23 24 0
-1 -9 0
15 -16 0
22 14 0
-8 29 0
-27 -28 0
-12 -21 0
16 -3 0
-26 -28 0
29 -19 0
25 27 0
-11 -21 0
-15 8 0
-29 -4 0
-13 3 0
25 11 0
-22 -2 0
23 14 0
8 19 0
-30 20 0
-22 -23 0
2 -24 0
28 -10 0
26 -29 0
-3 29 0
22 24 0
