c PROBLEM_030_060_49  vars=30  clausulas=60  k=2
p cnf 30 60
-19 -22 0
3 -18 0
22 25 0
-19 7 0
29 -7 0
16 -15 0
30 -28 0
-27 -18 0
29 10 0
28 -4 0
-18 13 0
3 -28 0
7 -29 0
28 -4 0
2 11 0
-20 7 0
-21 14 0
17 28 0
28 -8 0
10 18 0
12 -15 0
14 -6 0
10 -25 0
-5 -30 0
8 21 0
23 -21 0
23 -17 0
17 29 0
12 -16 0
-24 16 0
2 20 0
-11 -8 0
-10 16 0
17 3 0
-6 20 0
22 -30 0
-30 14 0
22 -15 0
24 -15 0
12 30 0
11 3 0
11 -6 0
30 -9 0
14 29 0
21 -5 0
10 -4 0
30 5 0
-14 -2 0
-27 1 0
-1 2 0
-18 20 0
29 -23 0
28 26 0
5 -13 0
1 24 0
-12 3 0
-13 16 0
-21 -12 0
11 -16 0
25 9 0
