c PROBLEM_050_060_28  vars=50  clausulas=60  k=2
p cnf 50 60
16 2 0
4 -23 0
-29 31 0
45 -1 0
-7 10 0
-50 -38 0
-9 2 0
23 20 0
-19 29 0
45 -31 0
36 13 0
-25 -16 0
-49 -12 0
-9 -17 0
13 20 0
-2 -48 0
-27 30 0
48 -2 0
-44 34 0
13 11 0
49 -32 0
8 48 0
-22 42 0
28 33 0
16 27 0
-23 -39 0
10 -14 0
6 1 0
-32 30 0
46 42 0
24 -45 0
-48 34 0
-26 19 0
27 -6 0
-36 32 0
14 5 0
8 4 0
37 47 0
-40 -47 0
23 -28 0
-11 7 0
-38 40 0
26 3 0
-12 5 0
43 -45 0
42 33 0
46 -32 0
44 -41 0
3 -14 0
26 -28 0
-3 1 0
10 28 0
-15 21 0
-20 -6 0
-35 24 0
-25 11 0
-43 5 0
-22 -18 0
34 28 0
49 -30 0
