c PROBLEM_050_060_50  vars=50  clausulas=60  k=2
p cnf 50 60
-32 -38 0
-12 -37 0
41 47 0
-6 14 0
-35 -47 0
49 40 0
23 28 0
15 16 0
23 -48 0
45 -49 0
-15 -16 0
-34 -47 0
-42 -18 0
49 5 0
4 -50 0
44 -14 0
-46 25 0
3 2 0
37 -46 0
6 -42 0
-2 -20 0
-31 -13 0
-35 33 0
-18 3 0
9 50 0
31 24 0
1 -39 0
-23 -10 0
-49 19 0
-38 -27 0
-39 -21 0
-3 15 0
-13 -22 0
2 -11 0
-42 40 0
-43 -17 0
6 -25 0
-21 14 0
15 31 0
-8 7 0
-19 13 0
-29 10 0
17 10 0
31 -21 0
26 32 0
-32 46 0
-22 36 0
30 29 0
-4 36 0
44 49 0
24 -40 0
34 6 0
-5 42 0
-41 -37 0
-49 -6 0
38 29 0
-31 -20 0
-22 1 0
-49 -11 0
18 -38 0
