c PROBLEM_050_060_40  vars=50  clausulas=60  k=2
p cnf 50 60
30 34 0
43 -27 0
34 47 0
7 46 0
9 -1 0
35 -4 0
19 25 0
32 23 0
-28 25 0
-47 -38 0
21 -42 0
-43 45 0
-15 -4 0
-15 -7 0
29 -12 0
-26 -17 0
-35 -15 0
1 19 0
14 -37 0
-23 4 0
10 44 0
-35 45 0
-5 -2 0
-20 40 0
-24 12 0
27 -44 0
-33 -22 0
42 12 0
24 9 0
18 -49 0
-32 23 0
-3 -30 0
-13 31 0
38 11 0
30 46 0
-39 -12 0
49 16 0
-44 -20 0
38 -9 0
-16 22 0
10 19 0
-13 3 0
6 5 0
50 -5 0
39 2 0
-27 -16 0
25 -20 0
-21 -35 0
-48 21 0
8 43 0
17 -12 0
-6 36 0
-18 22 0
2 -19 0
-36 -10 0
-27 -7 0
-4 23 0
33 -41 0
-34 18 0
-40 -49 0
