c PROBLEM_050_060_44  vars=50  clausulas=60  k=2
p cnf 50 60
29 -3 0
-35 -34 0
41 -34 0
-38 48 0
-5 -23 0
-30 -28 0
40 -11 0
-33 29 0
-16 20 0
-4 -8 0
-37 16 0
-14 -18 0
50 23 0
-47 -12 0
1 37 0
26 13 0
19 9 0
-49 -45 0
47 -15 0
9 12 0
35 -12 0
-14 29 0
7 -17 0
-12 -5 0
37 20 0
29 -16 0
42 -46 0
-36 33 0
-30 -18 0
-13 6 0
10 -22 0
-14 -33 0
-22 44 0
-35 -6 0
-8 -10 0
-32 -24 0
30 -13 0
-25 -9 0
-9 -28 0
21 41 0
-10 28 0
-33 -14 0
-15 31 0
10 -41 0
33 25 0
48 -43 0
43 39 0
15 -7 0
-34 2 0
-27 8 0
-8 48 0
25 -10 0
-21 43 0
27 -8 0
3 -47 0
29 38 0
49 -12 0
-4 -25 0
-29 -20 0
-31 24 0
