c PROBLEM_050_060_16  vars=50  clausulas=60  k=2
p cnf 50 60
14 -49 0
29 -25 0
-26 14 0
-44 46 0
11 41 0
-7 -15 0
14 38 0
14 -50 0
9 -7 0
28 -45 0
43 -7 0
35 46 0
33 35 0
-43 -9 0
-7 -27 0
19 15 0
50 -40 0
-15 -27 0
10 35 0
14 45 0
39 -48 0
-36 -26 0
19 -8 0
-13 -8 0
2 -28 0
-17 -49 0
-50 41 0
23 -22 0
-10 -32 0
-41 -12 0
-42 43 0
34 23 0
-48 16 0
-40 -13 0
-36 30 0
16 -1 0
-5 -6 0
27 38 0
40 -6 0
-31 44 0
6 -3 0
25 4 0
-30 20 0
-5 -37 0
-14 28 0
-35 -18 0
-17 21 0
-24 -36 0
-35 47 0
23 48 0
-4 -30 0
-7 27 0
6 18 0
-9 26 0
-37 -15 0
41 30 0
-48 -10 0
46 1 0
-47 -27 0
18 -38 0
