c PROBLEM_050_060_01  vars=50  clausulas=60  k=2
p cnf 50 60
19 23 0
-12 -46 0
10 24 0
-34 38 0
-40 -19 0
7 26 0
-19 22 0
33 -21 0
42 -7 0
-16 -9 0
-18 37 0
12 19 0
33 16 0
-15 22 0
-15 45 0
-48 4 0
-34 -30 0
-26 48 0
-46 39 0
-47 25 0
-21 -31 0
12 -32 0
30 -25 0
3 41 0
-45 36 0
-27 50 0
-13 7 0
-1 -5 0
-35 16 0
29 -33 0
20 23 0
-28 -36 0
7 32 0
-27 -42 0
5 45 0
-20 -7 0
6 9 0
36 49 0
-16 19 0
16 -14 0
2 28 0
41 -17 0
50 35 0
-29 -26 0
-40 37 0
28 -16 0
-23 46 0
15 -39 0
44 25 0
18 15 0
13 -41 0
-50 25 0
19 -36 0
-4 -11 0
-8 -21 0
43 45 0
25 -8 0
19 47 0
47 -15 0
-48 18 0
