c PROBLEM_050_060_43  vars=50  clausulas=60  k=2
p cnf 50 60
26 31 0
30 -17 0
19 12 0
-50 37 0
-42 46 0
-36 -30 0
34 3 0
41 22 0
39 -43 0
45 1 0
22 18 0
-20 11 0
-25 -32 0
-27 -13 0
-12 40 0
-19 31 0
39 -49 0
35 -11 0
38 -4 0
37 -5 0
13 -22 0
-50 22 0
-30 -27 0
4 -7 0
-50 42 0
1 -32 0
-44 -47 0
-11 -14 0
-17 -33 0
25 -50 0
-14 -9 0
-47 1 0
18 -46 0
-35 21 0
-44 -16 0
-36 -23 0
-25 29 0
12 24 0
34 20 0
-16 48 0
32 5 0
-9 16 0
33 26 0
17 -47 0
-43 13 0
-3 14 0
-31 3 0
-8 47 0
-2 -28 0
-11 -44 0
-10 -48 0
-23 -41 0
45 27 0
-38 -9 0
-6 39 0
-15 39 0
-25 24 0
-3 47 0
-11 48 0
14 36 0
