c PROBLEM_050_060_26  vars=50  clausulas=60  k=2
p cnf 50 60
-2 -45 0
-45 4 0
-4 35 0
7 -26 0
5 -9 0
-50 -3 0
49 -17 0
19 -27 0
12 -47 0
-11 41 0
-32 46 0
14 27 0
-47 15 0
25 -14 0
2 24 0
-41 -9 0
-37 38 0
-12 1 0
46 40 0
38 44 0
-43 16 0
-23 -50 0
19 2 0
8 -48 0
23 25 0
22 -38 0
-39 38 0
-16 -36 0
27 -36 0
6 -14 0
-20 49 0
50 42 0
11 -46 0
41 -23 0
32 -35 0
-13 -45 0
33 -20 0
32 -19 0
-46 -39 0
21 -29 0
34 -17 0
-21 -48 0
-4 -17 0
-31 -10 0
-19 -18 0
14 35 0
6 5 0
-32 -47 0
-48 -22 0
-45 5 0
10 44 0
-42 1 0
22 49 0
13 40 0
-4 -44 0
13 -30 0
34 -43 0
-33 38 0
-14 3 0
-35 28 0
