c PROBLEM_050_060_02  vars=50  clausulas=60  k=2
p cnf 50 60
-17 -33 0
-29 -45 0
42 -11 0
-44 -26 0
28 42 0
2 17 0
-5 23 0
-15 31 0
46 25 0
-37 34 0
22 40 0
3 42 0
-36 -40 0
26 -35 0
38 -8 0
24 27 0
-29 43 0
-14 -7 0
34 -17 0
-42 48 0
36 34 0
16 50 0
-14 -12 0
-4 32 0
8 24 0
16 -45 0
43 21 0
13 2 0
-25 46 0
47 30 0
36 -46 0
19 42 0
11 -4 0
-39 5 0
-4 -8 0
8 49 0
-35 -27 0
-19 -32 0
-33 4 0
-44 -12 0
-43 -6 0
-35 13 0
30 40 0
39 49 0
10 24 0
23 -1 0
19 -39 0
-37 -28 0
20 18 0
4 20 0
1 -50 0
41 9 0
-46 1 0
16 21 0
31 -22 0
4 23 0
-44 -38 0
1 -29 0
-43 27 0
47 -15 0
