c PROBLEM_050_060_17  vars=50  clausulas=60  k=2
p cnf 50 60
-18 7 0
-1 10 0
36 14 0
38 17 0
-29 -20 0
-11 15 0
-17 -24 0
24 -46 0
-41 -50 0
-34 4 0
35 27 0
-30 41 0
4 -37 0
-13 25 0
-15 -2 0
-17 40 0
-18 -49 0
26 5 0
26 -4 0
21 3 0
-25 -30 0
-13 -47 0
9 27 0
-8 -7 0
29 -1 0
-44 7 0
-9 32 0
-16 -12 0
-23 26 0
40 44 0
-41 -10 0
-43 -38 0
35 -19 0
-39 20 0
-13 18 0
9 -22 0
-28 -32 0
15 37 0
-38 -31 0
19 -21 0
-24 14 0
22 -15 0
-26 22 0
38 -36 0
-33 34 0
6 2 0
8 28 0
25 -3 0
-35 -18 0
-15 -45 0
-27 18 0
44 43 0
32 -9 0
-43 -30 0
19 24 0
-18 -42 0
46 45 0
-48 -11 0
29 -26 0
13 -7 0
