c PROBLEM_050_060_30  vars=50  clausulas=60  k=2
p cnf 50 60
25 7 0
-37 14 0
4 3 0
27 -40 0
-45 29 0
11 -5 0
6 -30 0
34 -33 0
-16 5 0
41 -39 0
-50 -4 0
24 16 0
15 36 0
9 -50 0
49 50 0
22 -36 0
-1 -46 0
-21 -42 0
15 -47 0
20 -1 0
-41 18 0
21 41 0
-37 18 0
43 46 0
-2 13 0
1 5 0
-45 38 0
-5 17 0
32 -12 0
30 -44 0
47 29 0
-2 13 0
-3 24 0
31 24 0
28 -39 0
41 19 0
-26 34 0
-48 -22 0
11 -8 0
7 -2 0
31 -9 0
34 35 0
-28 21 0
18 22 0
1 -19 0
3 -28 0
-50 31 0
-23 -10 0
40 5 0
19 -47 0
-9 -45 0
-37 -19 0
29 -12 0
5 -35 0
25 43 0
8 -14 0
13 -17 0
-20 2 0
-49 22 0
-46 37 0
