c PROBLEM_050_060_29  vars=50  clausulas=60  k=2
p cnf 50 60
-9 48 0
-16 19 0
-42 -47 0
-17 50 0
21 -42 0
46 -11 0
-50 22 0
5 -37 0
30 9 0
42 -40 0
-28 20 0
-10 -23 0
-44 49 0
-1 24 0
-8 -3 0
-21 41 0
29 -35 0
-10 32 0
-20 -14 0
46 30 0
7 44 0
6 28 0
-17 32 0
17 -47 0
-13 -27 0
-2 7 0
-34 -50 0
-39 -29 0
8 16 0
33 -11 0
32 -16 0
-48 17 0
-38 -42 0
-45 43 0
41 31 0
-19 -17 0
37 -44 0
-48 43 0
4 -29 0
5 -1 0
-17 -2 0
2 -38 0
5 23 0
27 3 0
9 -4 0
-10 50 0
12 26 0
-48 -23 0
34 -25 0
1 -37 0
49 33 0
16 -15 0
41 -46 0
18 -36 0
-8 36 0
5 -13 0
40 39 0
-47 -19 0
48 16 0
-39 3 0
