c PROBLEM_050_060_49  vars=50  clausulas=60  k=2
p cnf 50 60
-16 -22 0
-45 -30 0
21 20 0
33 -13 0
-40 25 0
-48 27 0
41 15 0
-1 29 0
-17 -33 0
-19 -37 0
-33 -23 0
-47 -7 0
-30 18 0
26 -38 0
50 -8 0
-44 -41 0
-7 35 0
1 -32 0
45 12 0
41 3 0
-34 -28 0
2 37 0
10 24 0
37 42 0
15 -9 0
-28 44 0
-2 26 0
-49 5 0
-24 -26 0
-18 -14 0
10 -23 0
17 -43 0
25 -19 0
-31 -42 0
21 35 0
5 -21 0
-21 -11 0
11 -12 0
37 25 0
33 21 0
39 -26 0
-31 -42 0
-15 48 0
-4 -9 0
24 43 0
8 18 0
33 36 0
16 -44 0
-43 39 0
-17 -49 0
-6 -21 0
-6 -34 0
-48 36 0
22 13 0
-41 -50 0
17 46 0
-12 -35 0
-18 9 0
31 11 0
-48 -50 0
