c PROBLEM_050_060_06  vars=50  clausulas=60  k=2
p cnf 50 60
26 38 0
44 37 0
-3 19 0
-28 -35 0
36 -31 0
39 -45 0
16 -23 0
46 -28 0
1 17 0
-22 -49 0
-19 -50 0
18 48 0
-23 -39 0
-24 -45 0
-13 38 0
-44 19 0
-14 45 0
-9 -33 0
-27 20 0
47 38 0
-42 -22 0
-38 36 0
30 -10 0
-21 -29 0
-21 -16 0
-18 50 0
7 40 0
7 -49 0
-43 11 0
35 -9 0
-17 29 0
-29 -27 0
-33 -49 0
-29 20 0
8 46 0
-41 12 0
14 34 0
32 -21 0
-37 -47 0
-26 -32 0
23 -29 0
-31 20 0
-40 -2 0
-33 25 0
-3 -13 0
17 -33 0
33 -11 0
-40 -32 0
42 -14 0
-37 15 0
38 28 0
33 -2 0
41 6 0
32 -39 0
34 4 0
-12 5 0
2 -33 0
-3 10 0
-7 31 0
-9 5 0
