c PROBLEM_050_060_38  vars=50  clausulas=60  k=2
p cnf 50 60
-27 -44 0
46 9 0
5 49 0
-5 -23 0
16 -23 0
-8 49 0
-33 50 0
-20 -26 0
-29 -18 0
47 49 0
18 -34 0
-43 -21 0
26 -22 0
15 -25 0
13 -4 0
-6 23 0
-35 -50 0
-6 14 0
-19 -30 0
4 -33 0
24 -34 0
-50 -2 0
33 -18 0
-48 3 0
-15 26 0
-12 -41 0
10 18 0
3 -38 0
31 9 0
17 39 0
23 -43 0
1 -34 0
6 -35 0
27 20 0
27 -14 0
-37 -3 0
14 42 0
-48 -1 0
2 -22 0
-48 -3 0
-28 -36 0
38 -21 0
-13 39 0
21 44 0
-9 -47 0
28 -1 0
-2 -41 0
16 -5 0
7 28 0
-17 19 0
-36 17 0
-13 26 0
-49 26 0
11 37 0
-24 -32 0
45 26 0
-9 22 0
16 -40 0
-34 10 0
-8 -42 0
