c PROBLEM_050_060_45  vars=50  clausulas=60  k=2
p cnf 50 60
-41 16 0
-39 38 0
6 -20 0
-40 4 0
-20 -5 0
1 10 0
41 -14 0
7 43 0
-30 -16 0
-3 27 0
-18 -19 0
15 39 0
-5 8 0
25 -32 0
16 31 0
-17 -27 0
13 30 0
38 -26 0
-11 45 0
40 -11 0
-28 -31 0
-24 50 0
37 14 0
40 -49 0
-32 -17 0
5 -29 0
12 -10 0
-22 45 0
47 24 0
-49 24 0
21 37 0
-27 -42 0
-36 -41 0
1 41 0
1 -50 0
9 3 0
36 13 0
-29 -43 0
46 8 0
39 -17 0
17 26 0
38 24 0
-48 17 0
-9 25 0
-49 5 0
2 23 0
-29 26 0
-34 -44 0
35 25 0
41 33 0
-43 -8 0
-33 -43 0
39 -3 0
24 25 0
27 37 0
43 9 0
-13 44 0
-48 -36 0
18 49 0
-22 38 0
