c PROBLEM_050_060_14  vars=50  clausulas=60  k=2
p cnf 50 60
3 49 0
-9 -17 0
-27 -29 0
46 -30 0
-26 -45 0
-23 29 0
17 -39 0
17 16 0
-4 -5 0
12 -11 0
36 -1 0
33 -35 0
-20 50 0
-48 47 0
15 33 0
-48 25 0
33 20 0
42 -40 0
18 -37 0
-34 22 0
29 32 0
15 -23 0
-40 -22 0
14 -7 0
-28 -4 0
19 -14 0
-18 6 0
3 39 0
-29 27 0
-19 48 0
-24 -1 0
7 -44 0
21 35 0
20 47 0
-8 6 0
-46 -32 0
19 -9 0
-12 34 0
45 37 0
-44 -34 0
-11 -46 0
7 -40 0
26 37 0
-46 -13 0
-50 21 0
-31 5 0
12 -44 0
13 -12 0
-44 -30 0
14 -26 0
2 36 0
41 -10 0
-23 -39 0
47 37 0
25 47 0
-24 44 0
36 3 0
43 28 0
-38 -16 0
25 -24 0
