c PROBLEM_050_060_25  vars=50  clausulas=60  k=2
p cnf 50 60
-26 36 0
35 33 0
38 -22 0
-19 -25 0
42 -20 0
27 -50 0
-1 -19 0
11 17 0
-32 -24 0
35 -14 0
1 -36 0
17 50 0
33 45 0
34 -6 0
-48 -39 0
17 -38 0
10 41 0
-10 -35 0
16 -31 0
-40 -49 0
4 30 0
-34 -31 0
-14 22 0
29 -21 0
-23 1 0
-31 19 0
-40 41 0
31 -7 0
-16 26 0
-48 -12 0
32 33 0
-2 -23 0
-46 -15 0
7 -13 0
37 45 0
-20 -47 0
5 -24 0
-16 3 0
-12 27 0
-37 8 0
48 28 0
-25 -36 0
-18 28 0
-20 31 0
32 -14 0
-2 -6 0
18 12 0
-10 -50 0
-3 -49 0
-29 37 0
-44 -6 0
34 -5 0
-47 43 0
9 27 0
30 48 0
45 -12 0
-45 -27 0
-49 18 0
13 7 0
50 -22 0
