c PROBLEM_050_060_23  vars=50  clausulas=60  k=2
p cnf 50 60
29 -39 0
-17 -13 0
-6 21 0
31 -21 0
44 -8 0
7 37 0
-11 -50 0
24 14 0
-18 -38 0
38 43 0
19 -26 0
8 -29 0
-46 -27 0
-38 6 0
27 31 0
-36 49 0
21 15 0
12 13 0
15 31 0
-30 -46 0
8 3 0
30 -24 0
41 39 0
31 37 0
48 -33 0
20 16 0
47 37 0
49 30 0
18 25 0
-40 -28 0
-1 16 0
32 -41 0
46 -15 0
-11 33 0
-3 35 0
-19 28 0
9 39 0
-38 -28 0
24 26 0
-3 31 0
44 -15 0
-32 -33 0
48 49 0
-8 18 0
-5 17 0
-4 23 0
-42 45 0
33 46 0
28 -1 0
-12 38 0
15 44 0
10 -2 0
36 34 0
33 -29 0
10 28 0
-12 37 0
-5 30 0
-9 -16 0
22 -12 0
-4 40 0
