c PROBLEM_050_060_33  vars=50  clausulas=60  k=2
p cnf 50 60
-10 -31 0
-18 -4 0
-6 -2 0
16 18 0
-30 -47 0
49 -35 0
8 -31 0
-48 33 0
-13 -27 0
-5 -15 0
33 24 0
25 -49 0
36 -41 0
37 -4 0
-13 19 0
46 24 0
-17 10 0
3 -26 0
-38 43 0
-30 18 0
30 27 0
16 -14 0
22 23 0
-12 -10 0
25 -41 0
-34 19 0
-46 -8 0
-38 45 0
45 -43 0
-43 -29 0
-22 19 0
-44 -50 0
41 8 0
25 -42 0
12 34 0
-48 7 0
12 -18 0
-44 -23 0
45 27 0
-48 35 0
32 -29 0
-40 -17 0
-34 1 0
-11 23 0
36 -28 0
-15 -41 0
-28 47 0
-42 40 0
25 -15 0
37 29 0
50 9 0
18 38 0
-38 14 0
-46 -35 0
-42 -34 0
9 -23 0
-20 39 0
-24 -42 0
8 6 0
-21 16 0
