c PROBLEM_020_090_01  vars=20  clausulas=90  k=2
p cnf 20 90
-5 -12 0
8 14 0
-17 19 0
6 19 0
-9 1 0
-9 -4 0
15 20 0
-14 -18 0
-17 -16 0
15 4 0
2 -19 0
-18 -19 0
10 2 0
5 -18 0
14 1 0
-9 17 0
-12 15 0
-8 -2 0
-11 -16 0
-17 15 0
-6 19 0
13 20 0
16 1 0
14 -4 0
7 -5 0
-12 -7 0
12 2 0
2 -9 0
-20 6 0
15 -9 0
15 11 0
4 -18 0
-20 -14 0
-5 -15 0
19 11 0
-16 18 0
-12 14 0
-10 -1 0
-2 -19 0
-17 5 0
-13 -8 0
-13 9 0
2 -6 0
6 14 0
6 3 0
6 -1 0
7 -10 0
14 5 0
2 -12 0
-7 -1 0
-2 -8 0
-19 11 0
18 3 0
17 -8 0
3 11 0
-7 -10 0
6 17 0
9 12 0
7 -10 0
-4 11 0
2 -4 0
18 -5 0
6 17 0
19 20 0
6 15 0
17 -4 0
-6 17 0
-12 5 0
11 -17 0
20 -6 0
-13 -18 0
-8 -2 0
4 -18 0
-6 -5 0
-18 -1 0
18 14 0
-15 -11 0
4 15 0
12 -6 0
-12 7 0
-15 -16 0
-3 8 0
1 -8 0
-19 -9 0
-4 -12 0
17 -11 0
8 -14 0
-7 14 0
-12 5 0
-15 5 0
