c PROBLEM_020_090_13  vars=20  clausulas=90  k=2
p cnf 20 90
-14 -16 0
-8 -13 0
16 -18 0
5 15 0
-8 16 0
-15 -11 0
-4 11 0
-16 -11 0
-2 -1 0
8 -13 0
15 -19 0
3 11 0
-13 6 0
-18 1 0
3 -10 0
17 -15 0
-10 13 0
15 7 0
-7 1 0
3 6 0
12 -5 0
-10 -7 0
-2 3 0
-10 -1 0
4 -11 0
13 1 0
4 2 0
17 8 0
-4 18 0
-19 -18 0
6 -1 0
5 -16 0
-18 -12 0
-18 -6 0
-5 19 0
9 -15 0
-12 20 0
18 7 0
-20 -2 0
-11 -12 0
-6 10 0
-11 -6 0
-8 -13 0
10 -8 0
-4 7 0
-3 -10 0
17 7 0
-12 7 0
-10 -16 0
18 -17 0
4 8 0
-17 3 0
-16 -2 0
20 -10 0
2 -20 0
18 -5 0
-6 -1 0
19 -15 0
15 -4 0
5 17 0
17 -19 0
-13 4 0
9 -10 0
-12 -13 0
7 -19 0
-19 -8 0
-14 -5 0
-14 7 0
-18 -20 0
-9 8 0
-15 9 0
-8 5 0
-12 8 0
1 -17 0
-15 5 0
15 17 0
5 12 0
-8 -6 0
-16 12 0
-10 5 0
19 -15 0
-18 -17 0
-13 -17 0
11 13 0
14 3 0
2 -15 0
16 -6 0
14 -10 0
-17 5 0
-17 12 0
