c PROBLEM_020_090_46  vars=20  clausulas=90  k=2
p cnf 20 90
19 6 0
8 -9 0
14 -10 0
13 9 0
17 -11 0
-20 9 0
-11 14 0
-12 18 0
10 -5 0
8 -4 0
-9 3 0
-19 -4 0
-11 18 0
-3 11 0
2 18 0
-13 9 0
-4 -11 0
-3 -13 0
-5 -4 0
4 -12 0
16 -20 0
-4 12 0
20 6 0
9 4 0
-3 14 0
3 14 0
-8 9 0
2 15 0
5 9 0
-3 -13 0
-3 7 0
-3 -1 0
14 -1 0
7 2 0
-14 -16 0
9 10 0
-19 -13 0
3 -6 0
-18 -12 0
-16 -17 0
-5 7 0
5 16 0
-19 11 0
17 -10 0
13 12 0
4 -12 0
-5 -4 0
-18 -2 0
-11 20 0
-14 17 0
16 -4 0
-8 -2 0
14 -12 0
-11 -16 0
15 -14 0
-20 -5 0
12 14 0
6 -8 0
9 -10 0
16 19 0
13 5 0
-19 -13 0
-18 7 0
-4 12 0
-2 18 0
15 -14 0
-17 10 0
7 2 0
-19 -13 0
-9 19 0
-5 14 0
5 17 0
-8 -15 0
-20 6 0
-20 8 0
6 -18 0
-19 -6 0
8 11 0
-9 19 0
13 19 0
-19 9 0
1 2 0
-14 -11 0
-20 -13 0
-13 -6 0
-2 19 0
14 -15 0
-1 -17 0
-12 3 0
-14 20 0
