c PROBLEM_020_090_50  vars=20  clausulas=90  k=2
p cnf 20 90
13 14 0
-3 1 0
12 -11 0
2 8 0
19 17 0
-14 1 0
11 1 0
6 -4 0
-16 -12 0
9 -20 0
-7 4 0
-14 10 0
3 -12 0
-11 4 0
-14 13 0
-12 18 0
-9 10 0
15 5 0
-5 12 0
-15 -6 0
-1 12 0
-4 -19 0
8 -19 0
12 -7 0
9 -2 0
17 -19 0
-14 -13 0
7 -17 0
4 8 0
-7 -10 0
7 10 0
-17 -7 0
-10 16 0
12 -7 0
-2 13 0
-3 14 0
12 18 0
-2 -20 0
-4 -12 0
12 -7 0
1 12 0
1 20 0
-12 -16 0
-7 -19 0
-2 -11 0
2 3 0
-13 -1 0
-4 5 0
5 -13 0
9 -2 0
16 -2 0
19 16 0
-6 -13 0
11 -6 0
11 18 0
-5 11 0
19 -17 0
15 17 0
-4 -13 0
12 5 0
12 13 0
15 7 0
-14 13 0
-1 -19 0
1 -16 0
6 1 0
14 -4 0
8 -14 0
-9 -2 0
12 -8 0
-18 14 0
-13 -3 0
2 10 0
19 -9 0
-4 -1 0
7 -5 0
-19 -10 0
2 14 0
4 17 0
-18 -15 0
-2 -19 0
-2 -1 0
-17 -9 0
20 -3 0
6 -17 0
20 12 0
-14 18 0
-3 1 0
-2 17 0
9 5 0
