c PROBLEM_020_090_48  vars=20  clausulas=90  k=2
p cnf 20 90
-19 10 0
2 -11 0
-12 11 0
-20 13 0
6 9 0
-13 18 0
20 -2 0
-7 17 0
3 -10 0
15 -5 0
-14 7 0
20 10 0
-11 3 0
10 5 0
-9 17 0
-3 17 0
-9 12 0
-1 13 0
2 7 0
-17 18 0
-11 -16 0
9 -7 0
-17 9 0
-16 10 0
-7 13 0
-9 16 0
-2 9 0
9 19 0
14 -15 0
17 -10 0
20 -13 0
13 -18 0
-5 12 0
-18 -11 0
-15 6 0
6 -4 0
-20 18 0
-17 -10 0
11 -4 0
-3 -13 0
15 -5 0
-8 -18 0
-11 15 0
-15 -9 0
2 14 0
3 -19 0
-15 10 0
8 -10 0
-14 8 0
-9 20 0
14 10 0
-12 -15 0
-18 11 0
-15 4 0
-4 7 0
10 -11 0
3 -13 0
-8 9 0
19 -3 0
17 -2 0
-11 16 0
-1 14 0
17 4 0
-18 17 0
1 -18 0
4 20 0
20 -13 0
13 8 0
13 18 0
2 9 0
6 -11 0
-10 15 0
14 -15 0
-5 -19 0
-9 -2 0
-12 -11 0
-12 -7 0
15 12 0
3 5 0
-10 -19 0
1 -17 0
-14 7 0
5 16 0
-14 19 0
-15 -5 0
-3 17 0
2 -11 0
4 -11 0
-13 20 0
4 -14 0
