c PROBLEM_020_090_04  vars=20  clausulas=90  k=2
p cnf 20 90
-20 15 0
15 10 0
16 -17 0
4 -2 0
-8 -7 0
-12 8 0
-18 15 0
-13 -11 0
-18 -13 0
-20 -5 0
-12 -4 0
-3 1 0
12 -19 0
19 -7 0
7 5 0
13 3 0
-16 -4 0
14 20 0
-6 -5 0
15 17 0
11 -2 0
-12 17 0
-12 17 0
-12 -16 0
-18 -7 0
-10 -1 0
9 17 0
12 -3 0
20 4 0
11 -18 0
-11 -1 0
-16 2 0
5 -9 0
13 3 0
-10 -9 0
11 6 0
-17 -1 0
-14 9 0
-17 11 0
-14 10 0
16 -4 0
17 15 0
19 -6 0
-12 -7 0
-4 15 0
-2 -1 0
-11 17 0
15 14 0
20 -15 0
18 -6 0
-16 14 0
1 -12 0
-4 -16 0
-18 -8 0
-20 -6 0
10 -17 0
-1 -8 0
-4 -3 0
-15 13 0
-16 -18 0
8 -13 0
-15 6 0
10 17 0
9 11 0
-4 -19 0
16 -10 0
18 -16 0
19 -10 0
-7 20 0
-2 15 0
-12 3 0
5 -16 0
19 4 0
-2 -5 0
-3 11 0
12 10 0
7 -4 0
-18 14 0
-9 5 0
14 17 0
14 -4 0
-7 8 0
13 3 0
10 15 0
-11 3 0
13 14 0
-1 -7 0
-11 -8 0
-18 -6 0
11 -12 0
