c PROBLEM_020_090_20  vars=20  clausulas=90  k=2
p cnf 20 90
-4 -6 0
4 -15 0
-8 7 0
7 -17 0
13 -1 0
3 -10 0
-7 8 0
18 14 0
3 7 0
15 14 0
8 4 0
11 -1 0
-20 12 0
6 -19 0
-19 -2 0
7 -13 0
9 -5 0
-10 -2 0
-10 -5 0
-20 15 0
-3 13 0
11 15 0
6 -16 0
-17 6 0
15 6 0
17 -8 0
8 -2 0
-10 -6 0
-1 -20 0
10 -11 0
-5 -6 0
-17 -3 0
-2 17 0
12 10 0
-19 -7 0
1 -3 0
17 19 0
-12 -3 0
-8 -2 0
-9 -15 0
2 17 0
7 20 0
-20 17 0
18 -9 0
18 2 0
7 18 0
-15 -3 0
-7 14 0
12 9 0
14 1 0
-3 -6 0
7 16 0
13 10 0
-19 -14 0
-8 -10 0
4 -11 0
7 -9 0
10 -17 0
8 -5 0
6 -16 0
6 -15 0
17 6 0
4 9 0
-17 -12 0
2 8 0
1 -18 0
-16 -11 0
20 -7 0
-5 12 0
11 13 0
14 11 0
-1 -18 0
3 9 0
1 -15 0
20 3 0
3 15 0
-19 -6 0
-17 -10 0
1 3 0
1 -12 0
-1 -6 0
-15 8 0
-17 19 0
16 7 0
8 -10 0
-9 -19 0
-10 12 0
-7 -20 0
9 -6 0
-16 -19 0
