c PROBLEM_020_090_28  vars=20  clausulas=90  k=2
p cnf 20 90
-3 15 0
11 18 0
-1 -7 0
-12 17 0
-10 18 0
-13 11 0
6 9 0
17 20 0
-3 -19 0
12 17 0
15 4 0
-15 1 0
11 3 0
16 3 0
20 -6 0
20 2 0
-17 -8 0
-13 -3 0
-10 12 0
-4 9 0
18 19 0
1 14 0
9 -18 0
-11 10 0
-10 -1 0
-7 16 0
1 -2 0
5 -13 0
13 11 0
-5 -19 0
9 -15 0
16 1 0
-14 10 0
10 4 0
14 -1 0
-12 15 0
6 7 0
1 15 0
-10 1 0
19 -3 0
-8 -12 0
-16 9 0
-12 1 0
6 20 0
15 17 0
16 -14 0
3 -14 0
6 13 0
-1 15 0
11 -15 0
5 12 0
-10 -1 0
10 11 0
6 -20 0
3 10 0
-9 -2 0
14 20 0
-8 15 0
-5 -18 0
-15 -20 0
-19 20 0
10 19 0
-16 14 0
14 -11 0
-1 2 0
-16 13 0
15 -8 0
-3 -18 0
-9 -15 0
2 16 0
2 -4 0
15 -19 0
-16 12 0
-15 3 0
-9 19 0
-13 10 0
15 -14 0
-3 17 0
-3 -17 0
-19 9 0
-16 4 0
-15 -4 0
-19 -14 0
-13 -19 0
5 11 0
6 7 0
2 -1 0
-11 -1 0
5 4 0
20 -19 0
