c PROBLEM_020_090_47  vars=20  clausulas=90  k=2
p cnf 20 90
-16 3 0
11 14 0
-13 -4 0
-14 -9 0
8 11 0
10 13 0
-16 -15 0
7 18 0
-7 -6 0
16 -11 0
6 -3 0
7 -14 0
19 -10 0
20 -9 0
-12 1 0
17 -12 0
17 16 0
-9 8 0
7 -8 0
-12 -20 0
-4 5 0
-16 -9 0
-10 6 0
-12 6 0
10 3 0
12 19 0
-7 8 0
-10 12 0
15 -13 0
18 1 0
-9 7 0
18 11 0
-2 -4 0
15 -7 0
20 13 0
-10 19 0
-3 14 0
-11 -3 0
-3 2 0
-16 -9 0
-19 -20 0
-8 10 0
1 11 0
1 -16 0
4 20 0
5 15 0
5 -6 0
-18 9 0
-7 11 0
-6 3 0
15 9 0
-14 -10 0
-6 -5 0
-12 -1 0
-4 19 0
18 20 0
-10 -11 0
-13 5 0
-15 -16 0
10 1 0
-5 -20 0
16 5 0
11 -14 0
13 -3 0
-6 17 0
14 -11 0
20 13 0
3 -11 0
-5 -12 0
11 -5 0
-18 3 0
15 -1 0
3 11 0
-6 13 0
12 17 0
5 17 0
20 12 0
-5 -20 0
13 -16 0
15 7 0
19 7 0
5 17 0
4 -10 0
19 14 0
-13 3 0
5 -4 0
-12 -2 0
4 2 0
-1 20 0
-11 3 0
