c PROBLEM_020_090_35  vars=20  clausulas=90  k=2
p cnf 20 90
-14 13 0
-16 -8 0
-14 10 0
2 5 0
11 -20 0
-13 -1 0
-1 9 0
15 18 0
12 -15 0
-3 -1 0
-20 13 0
11 -2 0
17 5 0
-9 -8 0
11 4 0
1 14 0
8 -20 0
2 14 0
3 -6 0
-12 -5 0
15 1 0
-2 -18 0
-5 -13 0
16 7 0
-10 -12 0
10 -8 0
-17 -7 0
-7 -14 0
9 -18 0
-14 7 0
2 -14 0
-2 1 0
-2 -3 0
9 12 0
-13 15 0
8 -5 0
-19 2 0
-15 5 0
11 14 0
20 -17 0
12 -17 0
11 -4 0
-14 8 0
20 9 0
-17 -15 0
15 6 0
-3 -17 0
-2 17 0
12 8 0
20 -10 0
-11 10 0
7 11 0
-9 6 0
9 -14 0
-8 -17 0
-6 -5 0
6 -9 0
5 15 0
6 -12 0
9 12 0
-15 -9 0
-18 -17 0
12 -15 0
-3 -6 0
-19 -5 0
9 16 0
-13 9 0
-9 -19 0
-5 9 0
18 -17 0
-12 -16 0
12 -14 0
2 -6 0
-12 -15 0
10 14 0
7 16 0
-3 6 0
-8 18 0
19 10 0
8 -14 0
4 -14 0
-4 18 0
2 -7 0
20 7 0
-7 1 0
1 6 0
-6 3 0
-4 3 0
-18 -1 0
-7 -13 0
