c PROBLEM_020_090_24  vars=20  clausulas=90  k=2
p cnf 20 90
7 13 0
-7 2 0
19 -6 0
-18 17 0
18 -9 0
2 -16 0
-8 20 0
4 -17 0
-2 -7 0
-16 13 0
18 -4 0
20 11 0
-7 3 0
-11 -15 0
20 12 0
11 7 0
-7 3 0
-18 -15 0
15 -20 0
-8 20 0
10 4 0
8 -15 0
-5 10 0
-1 9 0
-1 -16 0
-11 15 0
2 -4 0
11 -5 0
3 -18 0
-8 2 0
9 -8 0
14 11 0
12 -6 0
-4 -16 0
-8 3 0
-8 19 0
9 -3 0
-20 -12 0
6 7 0
-15 -13 0
6 11 0
-13 1 0
-13 19 0
16 -10 0
-13 -4 0
4 8 0
-17 -10 0
18 -13 0
6 2 0
11 18 0
-11 15 0
4 2 0
-16 -14 0
-5 14 0
-14 19 0
-11 6 0
-18 7 0
-14 20 0
-19 1 0
1 -12 0
-9 -18 0
-2 -3 0
16 1 0
-13 9 0
13 -10 0
-19 -17 0
-11 -2 0
-8 15 0
20 -17 0
-1 5 0
-11 19 0
-13 -11 0
13 14 0
-1 -10 0
15 -19 0
-4 6 0
-7 -14 0
-1 15 0
13 17 0
-5 2 0
-6 2 0
-14 2 0
-18 15 0
9 -6 0
12 15 0
20 -1 0
10 2 0
15 -3 0
2 -3 0
17 20 0
