c PROBLEM_020_090_14  vars=20  clausulas=90  k=2
p cnf 20 90
-2 -19 0
-15 -8 0
-4 19 0
-6 16 0
10 18 0
6 15 0
5 -16 0
12 17 0
-13 14 0
5 2 0
3 13 0
-16 -17 0
-11 -12 0
17 11 0
-7 10 0
-2 15 0
16 15 0
-3 -15 0
2 7 0
-1 8 0
19 5 0
18 13 0
17 1 0
11 2 0
-4 -3 0
-9 5 0
11 -17 0
18 1 0
-17 -5 0
-4 -16 0
-10 -14 0
8 -1 0
-10 17 0
16 -18 0
13 15 0
-15 -14 0
9 3 0
-3 5 0
10 -14 0
-1 -2 0
-2 -7 0
-14 -17 0
-4 1 0
-18 -13 0
10 7 0
-5 -8 0
-17 -5 0
12 3 0
18 2 0
3 13 0
-12 10 0
-19 5 0
-17 3 0
-15 -9 0
7 13 0
-15 -5 0
6 9 0
-4 -16 0
-2 14 0
-15 -19 0
13 -17 0
3 15 0
16 -17 0
9 -3 0
-12 -2 0
-20 -2 0
-14 12 0
-2 -8 0
-10 -17 0
-3 2 0
-6 -9 0
9 -5 0
-6 -5 0
17 1 0
4 14 0
4 8 0
8 -3 0
-1 13 0
-18 -1 0
14 -3 0
20 -9 0
-18 20 0
12 9 0
12 -6 0
-18 -20 0
-19 20 0
12 4 0
16 3 0
-18 -3 0
-10 -12 0
