c PROBLEM_020_090_44  vars=20  clausulas=90  k=2
p cnf 20 90
7 12 0
-5 14 0
1 18 0
11 20 0
-5 20 0
-8 -5 0
-10 -12 0
15 -14 0
-4 18 0
-11 -7 0
7 19 0
-2 3 0
13 -19 0
-1 -3 0
-5 -11 0
-9 4 0
3 14 0
-14 17 0
-7 -16 0
16 -14 0
12 -19 0
8 -17 0
-5 19 0
-18 -16 0
16 -9 0
-9 16 0
16 -5 0
-11 7 0
4 -14 0
14 7 0
-14 3 0
19 -4 0
19 -4 0
-1 -7 0
13 -4 0
-20 9 0
10 -1 0
1 -9 0
-10 6 0
20 12 0
9 -18 0
-4 3 0
-13 20 0
-7 6 0
6 -12 0
-14 -2 0
8 2 0
-2 9 0
2 -18 0
-16 7 0
5 11 0
2 1 0
-6 -10 0
14 19 0
10 -5 0
-19 4 0
11 6 0
-11 -19 0
-6 15 0
15 -3 0
4 7 0
-4 7 0
-2 -12 0
-14 -15 0
-11 -3 0
-1 -4 0
15 -9 0
8 16 0
-13 -8 0
-7 -12 0
5 -19 0
-14 12 0
5 -16 0
10 -20 0
12 -13 0
18 -1 0
-4 2 0
2 -11 0
11 5 0
-17 5 0
20 -18 0
16 -7 0
1 -7 0
8 16 0
3 -12 0
-17 19 0
7 15 0
-8 -19 0
-14 -6 0
-1 16 0
