c PROBLEM_020_090_05  vars=20  clausulas=90  k=2
p cnf 20 90
8 -6 0
13 20 0
2 12 0
11 -3 0
-8 10 0
19 7 0
7 -4 0
20 10 0
-19 12 0
16 2 0
12 -9 0
13 -12 0
12 2 0
-8 -19 0
20 11 0
-7 -10 0
6 1 0
-2 6 0
-10 12 0
-17 7 0
10 11 0
16 -8 0
-2 11 0
16 -4 0
1 -13 0
2 -6 0
7 4 0
-6 -9 0
12 -15 0
10 -8 0
5 -2 0
-19 -2 0
-2 -16 0
13 11 0
-8 1 0
14 -8 0
-11 -2 0
-13 -20 0
17 -9 0
14 -12 0
16 17 0
-5 -16 0
-8 -4 0
-14 -7 0
-16 -11 0
16 3 0
1 -19 0
4 7 0
17 -13 0
-11 -6 0
-20 -8 0
5 -2 0
-5 3 0
11 18 0
4 -14 0
-18 -6 0
-20 -18 0
-2 19 0
16 11 0
10 -20 0
-13 -17 0
9 -20 0
-19 11 0
9 12 0
-1 18 0
-10 -17 0
-18 -1 0
-19 8 0
-20 -7 0
1 14 0
-20 -18 0
-12 9 0
-11 8 0
-13 19 0
-18 15 0
11 5 0
13 14 0
-19 6 0
-3 -9 0
14 -19 0
-7 -8 0
17 9 0
-16 10 0
17 14 0
11 16 0
8 15 0
-10 17 0
-15 13 0
-11 -15 0
1 8 0
