c PROBLEM_070_090_46  vars=70  clausulas=90  k=2
p cnf 70 90
-27 -42 0
26 29 0
70 44 0
-69 -70 0
-50 22 0
15 12 0
-54 -32 0
18 9 0
-27 51 0
-14 67 0
23 30 0
-58 10 0
-66 -28 0
48 27 0
48 -3 0
-14 35 0
-37 -18 0
59 31 0
50 58 0
68 -44 0
13 -7 0
-41 54 0
33 -36 0
-36 -37 0
55 -30 0
38 -3 0
9 16 0
5 -23 0
55 -64 0
-53 -15 0
8 -38 0
29 24 0
44 49 0
-51 28 0
1 -41 0
-34 -23 0
20 -11 0
24 -53 0
62 -22 0
65 -59 0
47 28 0
43 2 0
54 49 0
-5 -41 0
47 -70 0
21 -60 0
-52 -61 0
16 -39 0
33 9 0
61 -57 0
-4 -7 0
1 18 0
18 -15 0
18 50 0
-63 -7 0
5 -23 0
-19 -30 0
-15 39 0
-63 16 0
11 -44 0
-51 -64 0
-69 14 0
62 31 0
25 60 0
-40 10 0
-23 -44 0
-25 -33 0
61 -69 0
8 62 0
54 33 0
48 67 0
28 68 0
-22 -36 0
12 42 0
67 1 0
-34 -23 0
-19 -17 0
6 40 0
-27 42 0
-45 35 0
5 -29 0
31 -58 0
-65 12 0
46 -5 0
26 49 0
44 3 0
-69 25 0
-55 70 0
-56 36 0
-34 38 0
