c PROBLEM_070_090_22  vars=70  clausulas=90  k=2
p cnf 70 90
-12 11 0
1 -8 0
-65 53 0
-30 -42 0
-22 38 0
-46 70 0
64 28 0
14 36 0
-67 17 0
-15 -54 0
-26 19 0
-51 -65 0
25 -22 0
-13 -26 0
46 5 0
33 -61 0
-63 -9 0
51 -18 0
-59 -8 0
8 53 0
12 2 0
-16 -57 0
24 10 0
2 -45 0
-8 -53 0
-30 48 0
5 -66 0
-20 33 0
-23 -63 0
31 -44 0
21 -27 0
54 46 0
-57 52 0
70 43 0
14 67 0
41 68 0
19 59 0
-25 -49 0
34 3 0
-69 58 0
-66 -61 0
-42 53 0
43 -58 0
-56 -50 0
2 -16 0
18 29 0
43 60 0
40 20 0
37 29 0
69 -36 0
39 34 0
-18 11 0
40 -6 0
41 47 0
37 -15 0
4 -18 0
12 54 0
-22 56 0
61 32 0
30 -51 0
14 65 0
61 60 0
41 -30 0
6 50 0
68 35 0
27 -46 0
13 33 0
1 -45 0
28 -34 0
-25 -48 0
58 -33 0
-54 7 0
3 59 0
-55 -3 0
-32 62 0
6 -15 0
55 -43 0
-14 -54 0
53 14 0
-68 -50 0
41 19 0
-24 -5 0
-58 13 0
-42 28 0
57 21 0
-58 -52 0
-51 47 0
69 -49 0
-40 70 0
-38 32 0
