c PROBLEM_070_090_48  vars=70  clausulas=90  k=2
p cnf 70 90
1 49 0
9 -1 0
23 33 0
-45 29 0
-11 26 0
61 21 0
-62 69 0
-65 39 0
39 21 0
6 -36 0
-2 -25 0
41 -11 0
-70 -31 0
65 -48 0
18 24 0
-19 53 0
-63 -50 0
-27 47 0
47 -44 0
-32 14 0
-30 -56 0
-67 -31 0
5 -36 0
-52 -27 0
-33 1 0
-2 -8 0
47 -56 0
42 -28 0
-23 8 0
11 -37 0
13 45 0
7 16 0
15 -12 0
12 3 0
66 67 0
-53 -4 0
-63 49 0
-46 -17 0
62 4 0
-22 -20 0
-9 -60 0
-21 -17 0
68 -60 0
49 8 0
-35 12 0
-70 -4 0
15 -57 0
-10 34 0
-41 40 0
-9 -5 0
-34 -54 0
21 -66 0
-16 -26 0
51 -43 0
54 -41 0
32 16 0
-39 -12 0
13 55 0
15 -32 0
11 35 0
64 -57 0
-58 -1 0
14 -55 0
-12 54 0
-15 40 0
-36 18 0
-22 13 0
-38 22 0
-3 5 0
-35 -43 0
-68 -70 0
55 66 0
-59 -38 0
-55 61 0
11 -70 0
4 -21 0
-20 5 0
31 -30 0
-26 64 0
-19 -47 0
25 52 0
-57 69 0
54 -25 0
-27 -28 0
8 -58 0
-62 19 0
61 49 0
55 10 0
40 62 0
20 -61 0
