c PROBLEM_070_090_38  vars=70  clausulas=90  k=2
p cnf 70 90
-64 44 0
-51 49 0
44 25 0
29 -57 0
40 -68 0
64 30 0
27 41 0
4 37 0
40 46 0
36 37 0
27 -1 0
-41 -16 0
42 -40 0
-17 -45 0
-43 -40 0
-3 34 0
36 -42 0
36 -32 0
-57 44 0
36 -70 0
-3 5 0
-4 -3 0
59 -51 0
59 -28 0
-26 64 0
46 -2 0
55 60 0
-28 65 0
8 -39 0
-6 30 0
-37 -11 0
40 44 0
-68 -49 0
48 20 0
-68 54 0
-30 23 0
-59 24 0
-17 33 0
-6 -31 0
-24 17 0
-29 -9 0
6 -21 0
-23 52 0
36 -29 0
7 -61 0
-1 -36 0
-20 -60 0
62 -53 0
-13 -35 0
61 -15 0
-59 -11 0
-33 -31 0
-47 67 0
-47 -45 0
-46 31 0
-67 -36 0
-69 22 0
-61 -57 0
-58 -67 0
45 54 0
-36 27 0
34 -10 0
-57 -47 0
55 35 0
-38 -50 0
-8 47 0
-9 -60 0
50 29 0
-12 24 0
-13 -57 0
35 25 0
-4 24 0
20 -42 0
-67 16 0
-59 -68 0
14 -18 0
-17 11 0
26 56 0
-51 -66 0
-14 -67 0
-69 6 0
-65 -62 0
19 -51 0
14 -64 0
-43 50 0
5 -11 0
58 -8 0
-30 -19 0
-32 -16 0
-1 -63 0
