c PROBLEM_070_090_47  vars=70  clausulas=90  k=2
p cnf 70 90
14 22 0
-17 67 0
-10 15 0
-6 62 0
-21 7 0
16 25 0
-49 -33 0
-67 -27 0
-20 -47 0
-6 34 0
-21 62 0
-56 5 0
-53 -24 0
4 5 0
-39 27 0
-64 7 0
-59 -8 0
63 -52 0
-7 51 0
29 59 0
-39 -38 0
47 51 0
12 -5 0
-34 -36 0
6 -32 0
-8 26 0
-67 -5 0
68 57 0
-3 -28 0
-12 -7 0
-10 -4 0
-29 -22 0
50 3 0
66 -52 0
-19 -12 0
-42 -25 0
-48 -60 0
-18 28 0
30 -57 0
-48 12 0
42 54 0
-22 32 0
57 -38 0
-61 39 0
10 65 0
-44 41 0
-46 31 0
-56 62 0
22 -64 0
59 -41 0
6 40 0
-21 32 0
37 -57 0
69 54 0
45 40 0
49 -29 0
-11 36 0
-14 -58 0
-39 -24 0
27 -3 0
9 42 0
-4 14 0
-18 -28 0
25 -58 0
-23 38 0
27 -17 0
66 64 0
-2 -51 0
17 24 0
-43 52 0
16 32 0
-53 -46 0
-30 -58 0
11 -26 0
-50 7 0
13 -70 0
40 66 0
48 38 0
-16 -23 0
-28 -48 0
3 44 0
35 48 0
-20 70 0
-1 -55 0
-21 -70 0
15 18 0
48 -19 0
55 -53 0
4 44 0
-31 -41 0
