c PROBLEM_070_090_17  vars=70  clausulas=90  k=2
p cnf 70 90
-19 -62 0
-13 -55 0
45 39 0
25 47 0
37 4 0
-13 -42 0
-46 -4 0
-68 16 0
-61 -3 0
19 -65 0
15 -6 0
56 -60 0
-10 -2 0
18 -47 0
-31 -20 0
50 -56 0
20 1 0
-63 48 0
-16 66 0
-63 -59 0
2 23 0
-6 -63 0
-45 -41 0
49 8 0
12 -64 0
41 62 0
65 -49 0
52 -28 0
48 -10 0
-69 70 0
-64 46 0
-4 58 0
-53 45 0
53 51 0
63 29 0
-50 -57 0
51 10 0
30 2 0
1 26 0
17 7 0
-40 -8 0
5 -14 0
-68 61 0
-12 -24 0
-43 -33 0
-50 -5 0
14 -52 0
24 30 0
21 1 0
13 33 0
-15 -22 0
7 62 0
-47 19 0
45 35 0
19 -25 0
36 12 0
-68 -65 0
-1 36 0
-56 -58 0
18 47 0
16 -13 0
-45 4 0
25 -22 0
13 -31 0
52 66 0
52 -39 0
-44 7 0
-34 -9 0
11 29 0
18 61 0
34 67 0
-61 70 0
39 26 0
-11 -62 0
33 6 0
-51 -26 0
-48 10 0
-2 -69 0
-66 28 0
29 70 0
49 -55 0
9 40 0
-42 54 0
16 36 0
26 32 0
26 -15 0
-10 -27 0
-57 65 0
67 38 0
-6 33 0
