c PROBLEM_070_090_01  vars=70  clausulas=90  k=2
p cnf 70 90
27 -57 0
-14 -61 0
66 43 0
57 7 0
64 56 0
-69 -67 0
48 -27 0
15 31 0
68 -1 0
-21 -12 0
26 -32 0
37 -36 0
-44 -41 0
38 -43 0
-2 26 0
-3 -22 0
-57 59 0
33 53 0
-56 8 0
-29 43 0
-6 -31 0
35 30 0
42 65 0
-58 -47 0
30 -64 0
-5 -20 0
43 -42 0
19 55 0
64 49 0
-4 25 0
31 69 0
10 -22 0
-11 2 0
-47 32 0
-54 -61 0
-28 -64 0
-41 48 0
-14 -21 0
67 -30 0
-61 6 0
-65 -2 0
60 -10 0
-45 -22 0
19 -48 0
51 39 0
10 55 0
29 -14 0
38 -20 0
-67 23 0
9 -51 0
13 -62 0
-66 -26 0
-34 -13 0
19 56 0
12 16 0
27 44 0
-13 -4 0
33 28 0
-41 -14 0
-16 4 0
-9 -46 0
-63 40 0
-65 -14 0
55 -35 0
-35 70 0
50 -49 0
5 3 0
17 -46 0
-34 57 0
-52 -59 0
38 -65 0
26 6 0
-62 58 0
-55 36 0
-23 -9 0
50 19 0
37 27 0
-25 -35 0
-4 42 0
-41 11 0
-24 4 0
-7 -60 0
-48 39 0
46 -17 0
-26 18 0
-11 -48 0
8 62 0
-35 -58 0
-41 -9 0
-54 -59 0
