c PROBLEM_070_090_06  vars=70  clausulas=90  k=2
p cnf 70 90
53 -60 0
-43 58 0
-63 -7 0
-16 -14 0
52 60 0
-23 13 0
16 -65 0
38 51 0
-8 28 0
-69 40 0
35 48 0
-3 -6 0
-22 -47 0
63 -58 0
31 62 0
39 -67 0
59 12 0
65 32 0
44 -43 0
-47 62 0
30 -46 0
69 13 0
61 -5 0
13 32 0
-34 -14 0
40 -70 0
-4 31 0
16 45 0
34 -27 0
-25 55 0
55 2 0
37 -19 0
-66 -37 0
34 -62 0
35 42 0
-26 -58 0
-3 18 0
-30 9 0
26 -21 0
38 14 0
1 -26 0
-41 36 0
-35 -53 0
-23 68 0
-52 66 0
61 -57 0
34 -35 0
-50 48 0
22 39 0
14 -8 0
62 -38 0
-46 4 0
-56 -13 0
-70 47 0
-29 25 0
-27 30 0
66 -59 0
-3 -24 0
-54 65 0
56 -13 0
-23 -33 0
62 -15 0
53 45 0
29 46 0
-10 53 0
-40 17 0
-60 -29 0
31 29 0
-29 25 0
19 -34 0
-46 20 0
54 -60 0
11 49 0
16 -42 0
-49 -39 0
7 -24 0
16 -9 0
14 -60 0
-65 57 0
-21 -39 0
21 -25 0
67 -55 0
46 6 0
40 46 0
-25 19 0
64 -34 0
-13 -60 0
-64 -58 0
-9 61 0
22 -28 0
