c PROBLEM_070_090_04  vars=70  clausulas=90  k=2
p cnf 70 90
-66 -68 0
53 40 0
-16 65 0
36 64 0
60 -68 0
-70 -67 0
-45 43 0
-2 -19 0
40 36 0
-21 -33 0
-63 2 0
-65 17 0
-6 5 0
18 50 0
-63 12 0
-9 -37 0
-48 -62 0
34 53 0
-69 4 0
30 -59 0
-39 -10 0
-2 10 0
18 -44 0
15 -58 0
-63 -31 0
54 60 0
15 -6 0
-61 43 0
-32 -27 0
7 26 0
-38 20 0
13 56 0
-28 68 0
-14 58 0
-6 48 0
58 65 0
-54 -30 0
36 -37 0
57 12 0
44 -39 0
-22 -56 0
-45 14 0
28 20 0
9 61 0
-59 37 0
-9 35 0
56 41 0
8 -61 0
-16 -8 0
47 -53 0
-55 -33 0
-22 -29 0
-44 23 0
-31 25 0
-46 52 0
18 38 0
24 35 0
-6 -17 0
51 -3 0
59 17 0
-66 54 0
29 28 0
28 -29 0
-1 2 0
70 69 0
30 -48 0
-65 34 0
6 40 0
-19 -51 0
57 -20 0
-20 -45 0
64 45 0
30 41 0
-43 10 0
69 40 0
-27 26 0
-62 -35 0
62 48 0
-59 -4 0
20 23 0
-31 -17 0
22 1 0
-42 -29 0
22 -5 0
-67 32 0
58 33 0
20 -61 0
-49 -21 0
-16 -11 0
31 7 0
