c PROBLEM_070_090_11  vars=70  clausulas=90  k=2
p cnf 70 90
9 7 0
40 42 0
-58 -50 0
51 -48 0
20 62 0
38 -46 0
-54 -61 0
56 14 0
29 -4 0
53 15 0
57 50 0
-65 15 0
-53 -60 0
49 47 0
25 -24 0
36 70 0
9 -20 0
38 -9 0
-58 -16 0
28 16 0
-46 17 0
30 -65 0
-2 55 0
-41 -52 0
-23 57 0
47 -7 0
-9 61 0
-64 -43 0
51 29 0
63 4 0
-27 33 0
45 31 0
-62 12 0
-18 1 0
15 11 0
-45 68 0
12 -59 0
-22 11 0
-10 -61 0
-60 13 0
-19 59 0
52 65 0
-28 -15 0
-9 44 0
16 68 0
18 -42 0
26 -37 0
-67 -41 0
-57 -70 0
66 56 0
-10 -35 0
55 -60 0
-48 -1 0
36 18 0
-25 -34 0
39 31 0
-60 -17 0
24 40 0
1 53 0
-36 38 0
55 32 0
53 13 0
2 -68 0
-69 63 0
3 -70 0
-29 -65 0
2 46 0
-24 10 0
-64 65 0
67 21 0
-18 42 0
-33 34 0
-12 -16 0
-2 -44 0
55 6 0
-63 44 0
-58 16 0
14 -31 0
57 28 0
-50 8 0
8 -38 0
29 -5 0
-50 -33 0
-49 35 0
-60 27 0
-63 -58 0
-48 4 0
39 -30 0
-13 6 0
-6 -2 0
