c PROBLEM_070_090_27  vars=70  clausulas=90  k=2
p cnf 70 90
-19 -48 0
17 -11 0
-2 -37 0
-41 -69 0
-30 -57 0
33 -60 0
18 38 0
-57 -23 0
55 -27 0
-20 -21 0
-68 70 0
49 1 0
56 29 0
12 -62 0
-7 -63 0
44 30 0
-64 -14 0
-48 8 0
-26 27 0
53 -43 0
19 -29 0
-32 -27 0
49 51 0
-20 -69 0
-46 54 0
4 -60 0
28 -66 0
-35 26 0
-36 -59 0
-45 -42 0
57 -38 0
25 -69 0
63 -13 0
28 32 0
-68 57 0
-10 -32 0
41 -15 0
40 57 0
-40 59 0
62 -39 0
15 46 0
65 39 0
23 68 0
-10 -42 0
42 -32 0
-40 -32 0
-65 -51 0
-9 54 0
-30 -47 0
51 -22 0
5 26 0
67 -49 0
56 -43 0
52 70 0
-29 39 0
12 -41 0
51 11 0
48 70 0
-4 -52 0
1 -40 0
65 66 0
48 -8 0
-37 28 0
-43 -31 0
47 -42 0
57 44 0
-13 16 0
32 22 0
-31 50 0
-15 -6 0
-61 -63 0
-40 -56 0
49 12 0
-44 33 0
-3 48 0
58 6 0
9 33 0
-34 -54 0
17 -34 0
9 30 0
-64 -65 0
31 -17 0
-24 -31 0
-36 -54 0
-16 -49 0
8 45 0
-55 -57 0
26 -15 0
21 -13 0
69 -16 0
