c PROBLEM_070_090_36  vars=70  clausulas=90  k=2
p cnf 70 90
-39 31 0
27 -56 0
49 -68 0
-53 -56 0
2 -18 0
-68 47 0
-60 -10 0
47 -62 0
-19 43 0
-65 -27 0
38 -49 0
-43 -56 0
-63 -9 0
1 -24 0
-52 -54 0
-26 -51 0
-66 20 0
33 -57 0
12 45 0
-59 -50 0
66 19 0
-6 -66 0
19 12 0
61 -37 0
28 -15 0
41 -20 0
-36 1 0
-4 -30 0
68 -11 0
67 38 0
37 -55 0
9 53 0
-9 47 0
-8 22 0
-45 32 0
-64 33 0
-47 -55 0
-54 5 0
9 -48 0
-25 -64 0
2 24 0
-70 57 0
-22 -11 0
-70 55 0
56 48 0
-30 -12 0
-12 -69 0
48 -13 0
19 -62 0
-66 -3 0
28 13 0
-58 -66 0
-52 -56 0
-30 55 0
-62 7 0
-59 33 0
-4 -44 0
69 9 0
13 -3 0
40 57 0
-35 -59 0
-14 -70 0
39 -44 0
26 38 0
21 15 0
19 47 0
-24 15 0
-16 58 0
-36 -38 0
26 -3 0
20 -12 0
-26 -18 0
49 41 0
20 31 0
9 18 0
-42 68 0
-5 51 0
8 40 0
31 -2 0
-66 62 0
63 -60 0
-28 -16 0
-46 17 0
3 34 0
-11 -21 0
54 24 0
-29 68 0
-2 -18 0
-19 -59 0
-23 67 0
