c PROBLEM_070_090_35  vars=70  clausulas=90  k=2
p cnf 70 90
-68 -46 0
10 -50 0
-57 54 0
35 64 0
-35 52 0
42 68 0
11 -37 0
19 35 0
-5 -14 0
-13 25 0
18 -20 0
67 47 0
-30 -21 0
-24 -42 0
20 62 0
-27 52 0
-67 38 0
-68 41 0
42 59 0
-39 44 0
44 35 0
-53 34 0
41 31 0
33 2 0
54 4 0
-21 -3 0
64 56 0
-61 37 0
51 45 0
33 10 0
-43 23 0
-37 -29 0
-1 3 0
18 15 0
67 61 0
6 22 0
-56 -63 0
-69 58 0
55 20 0
47 -36 0
8 17 0
31 -42 0
-46 52 0
44 -7 0
-25 30 0
26 -11 0
43 -35 0
43 59 0
11 -39 0
13 28 0
9 58 0
69 -27 0
-15 49 0
7 4 0
6 55 0
-10 -14 0
-60 -36 0
53 -42 0
18 12 0
40 25 0
-9 -70 0
5 -9 0
63 16 0
31 -32 0
-66 -2 0
19 70 0
-19 -1 0
34 -31 0
12 1 0
49 13 0
9 -25 0
53 4 0
-47 -22 0
38 15 0
-34 -48 0
8 -17 0
-60 -58 0
33 6 0
-43 -30 0
-20 48 0
-31 24 0
28 -44 0
29 66 0
59 -21 0
63 -41 0
-65 -17 0
-70 49 0
-51 -25 0
69 47 0
26 -54 0
