c PROBLEM_070_090_40  vars=70  clausulas=90  k=2
p cnf 70 90
-29 -3 0
-11 19 0
-41 -24 0
-66 47 0
28 -32 0
14 -43 0
-66 -42 0
-43 -16 0
26 -62 0
54 -1 0
-67 -56 0
58 3 0
-16 53 0
-13 21 0
28 64 0
33 -8 0
16 26 0
-18 59 0
-52 -11 0
-54 -64 0
-53 49 0
67 17 0
39 27 0
-41 35 0
46 36 0
46 9 0
36 -37 0
-37 -63 0
6 33 0
-19 24 0
-29 56 0
15 23 0
49 12 0
6 34 0
51 49 0
11 23 0
-7 -36 0
25 28 0
-54 42 0
-14 49 0
10 -45 0
-32 65 0
70 -49 0
4 68 0
-1 -60 0
-65 22 0
-61 49 0
-20 -40 0
-21 14 0
-63 -30 0
-48 2 0
-9 -55 0
-23 -2 0
5 -47 0
-18 -61 0
51 -53 0
-25 58 0
63 -29 0
-29 2 0
42 58 0
-70 -60 0
-31 -40 0
-63 30 0
10 12 0
-63 -69 0
-57 27 0
-62 29 0
-7 67 0
66 20 0
27 64 0
-52 15 0
-18 45 0
-31 -41 0
-44 35 0
-42 -57 0
59 61 0
-33 67 0
-68 57 0
54 46 0
8 22 0
14 -17 0
-32 5 0
-55 14 0
50 28 0
48 -69 0
-53 22 0
-34 19 0
-12 -39 0
-40 -38 0
-9 40 0
