c PROBLEM_070_090_13  vars=70  clausulas=90  k=2
p cnf 70 90
34 -39 0
43 19 0
-38 -57 0
58 -69 0
45 25 0
-43 -49 0
-54 -18 0
43 69 0
43 45 0
54 -11 0
-36 -47 0
-10 -14 0
-50 -39 0
-63 55 0
1 -35 0
-39 -27 0
-50 -47 0
15 47 0
-12 6 0
-7 -37 0
-17 70 0
-47 -68 0
-70 53 0
40 -23 0
19 -35 0
24 -14 0
38 -4 0
-31 9 0
46 -21 0
8 66 0
43 32 0
44 -54 0
-20 -23 0
-9 70 0
29 -24 0
-56 -36 0
-12 5 0
-3 51 0
-22 -24 0
15 47 0
-13 -6 0
22 66 0
-66 -17 0
-45 56 0
-28 44 0
-28 2 0
54 1 0
-62 -48 0
60 -19 0
13 -55 0
-51 37 0
27 -26 0
-45 -23 0
20 -24 0
46 41 0
-10 -26 0
-14 -68 0
-58 64 0
10 67 0
8 -33 0
12 40 0
-25 -64 0
-69 45 0
-31 -55 0
-70 16 0
-9 34 0
-22 14 0
58 21 0
30 15 0
35 -51 0
-3 15 0
-6 57 0
55 -42 0
25 65 0
-68 63 0
-68 -1 0
51 12 0
61 49 0
-18 -64 0
-67 -61 0
-53 52 0
22 -13 0
-11 -58 0
-59 57 0
36 -55 0
47 40 0
-69 70 0
-67 -42 0
-1 -63 0
-52 -23 0
