c PROBLEM_070_090_15  vars=70  clausulas=90  k=2
p cnf 70 90
46 -1 0
-57 33 0
50 36 0
-66 -13 0
-47 68 0
41 -39 0
17 -8 0
13 7 0
58 -15 0
-48 -57 0
60 -3 0
-28 11 0
-48 62 0
-30 22 0
-58 7 0
57 63 0
14 -7 0
24 10 0
48 -7 0
4 -70 0
-25 26 0
-18 1 0
55 -21 0
47 -9 0
-20 -6 0
-26 -3 0
40 -58 0
-28 -38 0
-21 70 0
31 -26 0
66 23 0
30 -19 0
-41 10 0
2 6 0
9 16 0
-12 -39 0
-29 -66 0
-68 15 0
-18 -69 0
41 48 0
-56 25 0
3 62 0
-54 -62 0
-44 59 0
44 40 0
-34 -16 0
49 -53 0
-45 31 0
-59 -66 0
20 -52 0
47 -5 0
38 -12 0
-32 3 0
14 15 0
-64 37 0
47 -6 0
-48 38 0
-46 -67 0
34 -65 0
-69 5 0
68 60 0
-8 2 0
-6 29 0
-7 32 0
35 62 0
-50 -51 0
54 -31 0
1 14 0
-61 -36 0
-43 36 0
-39 11 0
25 -41 0
53 39 0
-31 27 0
-46 -54 0
-42 55 0
13 67 0
8 52 0
12 -57 0
33 14 0
-29 -65 0
35 -46 0
-46 -5 0
38 39 0
-7 -62 0
58 -11 0
48 40 0
39 -5 0
-18 -54 0
-53 24 0
