c PROBLEM_020_080_39  vars=20  clausulas=80  k=2
p cnf 20 80
-11 -14 0
-20 -4 0
19 7 0
16 -19 0
-19 11 0
-5 15 0
15 -8 0
17 11 0
-19 13 0
-18 -7 0
-5 9 0
8 -6 0
-9 4 0
9 -18 0
-14 1 0
18 6 0
5 -18 0
-1 -17 0
17 2 0
17 18 0
6 17 0
20 15 0
7 16 0
18 15 0
14 -8 0
-11 -13 0
8 12 0
-15 -12 0
14 2 0
-11 -17 0
-13 -12 0
-19 -1 0
19 3 0
15 19 0
-9 -12 0
13 18 0
-5 2 0
-9 -2 0
8 -7 0
20 -14 0
-12 -15 0
12 20 0
-9 -12 0
9 6 0
-20 -17 0
10 -20 0
-2 -1 0
19 -13 0
-4 -11 0
16 6 0
-2 19 0
20 1 0
6 12 0
6 -14 0
19 -13 0
8 -15 0
11 6 0
2 -6 0
16 -9 0
-2 8 0
-2 -3 0
8 -2 0
13 -7 0
-14 -6 0
-7 -18 0
10 -20 0
-4 -20 0
19 16 0
11 -10 0
-3 14 0
-11 -13 0
-17 10 0
15 20 0
8 -14 0
20 -2 0
5 9 0
14 -11 0
19 -1 0
-14 17 0
9 10 0
