c PROBLEM_020_080_23  vars=20  clausulas=80  k=2
p cnf 20 80
6 12 0
16 10 0
-2 16 0
-4 18 0
13 8 0
20 10 0
-12 18 0
-15 -5 0
19 -2 0
-18 6 0
12 15 0
10 8 0
19 1 0
-11 -15 0
4 -1 0
6 18 0
14 13 0
4 -20 0
-10 -12 0
20 1 0
-12 -13 0
13 -16 0
2 10 0
5 -3 0
1 -8 0
16 -13 0
10 -1 0
-2 -3 0
20 8 0
-12 10 0
6 -11 0
19 -3 0
11 -12 0
8 -19 0
14 -11 0
-13 4 0
20 13 0
14 -18 0
9 20 0
7 13 0
-9 19 0
-10 15 0
20 -8 0
17 19 0
1 16 0
9 7 0
-10 5 0
4 -10 0
3 -5 0
19 18 0
3 15 0
20 10 0
5 -9 0
-7 11 0
-5 -16 0
12 18 0
19 -15 0
10 -5 0
19 15 0
14 -10 0
18 -17 0
8 -13 0
-13 -11 0
9 -6 0
-11 2 0
19 13 0
-1 -14 0
4 12 0
3 11 0
-13 -18 0
-13 3 0
-20 7 0
-17 3 0
-6 -17 0
-15 10 0
-13 -17 0
17 -3 0
-3 -20 0
4 9 0
-12 -6 0
