c PROBLEM_020_080_46  vars=20  clausulas=80  k=2
p cnf 20 80
16 1 0
-18 16 0
12 18 0
13 -15 0
-20 -6 0
-17 -2 0
-4 19 0
11 7 0
19 3 0
-10 3 0
-11 -13 0
4 -8 0
18 -13 0
13 11 0
-15 -6 0
17 7 0
5 8 0
-4 14 0
8 -4 0
19 11 0
5 -10 0
-2 -1 0
11 7 0
14 11 0
-10 -16 0
8 -3 0
5 1 0
-15 6 0
-6 11 0
11 13 0
-6 -15 0
9 -17 0
-1 -8 0
12 16 0
-7 -19 0
12 18 0
-6 18 0
9 -10 0
-13 8 0
-12 -16 0
-19 16 0
-11 20 0
-1 -8 0
13 11 0
1 8 0
-17 9 0
13 -1 0
-11 15 0
-15 16 0
-20 2 0
12 3 0
2 -3 0
-8 13 0
4 20 0
-12 -7 0
20 -9 0
-5 10 0
18 7 0
3 14 0
16 -11 0
16 10 0
-5 -14 0
15 -20 0
-17 -9 0
2 -1 0
13 -20 0
-12 14 0
-12 -14 0
16 -19 0
19 18 0
14 19 0
19 8 0
8 14 0
19 1 0
7 -5 0
14 -4 0
-4 3 0
-20 -18 0
14 -7 0
-2 -14 0
