c PROBLEM_020_080_35  vars=20  clausulas=80  k=2
p cnf 20 80
17 -7 0
16 -6 0
12 9 0
-6 17 0
12 -18 0
-16 -2 0
18 15 0
14 12 0
-1 -8 0
-12 9 0
-16 8 0
1 -16 0
2 -11 0
7 -4 0
12 9 0
2 -15 0
16 15 0
13 20 0
-3 -20 0
-10 3 0
-11 -6 0
15 20 0
13 12 0
13 -1 0
-4 7 0
-12 -17 0
18 -16 0
14 -17 0
-3 -8 0
11 20 0
-2 -8 0
17 -12 0
11 6 0
16 -13 0
-11 10 0
-2 -18 0
16 -6 0
-20 -19 0
14 5 0
-10 -8 0
2 16 0
14 5 0
-17 9 0
7 -3 0
10 18 0
15 3 0
7 15 0
10 20 0
-5 -3 0
1 -9 0
12 13 0
8 19 0
-2 14 0
14 19 0
-4 -13 0
-2 -11 0
12 -10 0
15 18 0
-8 10 0
-15 -1 0
-13 1 0
6 -13 0
-8 3 0
9 -10 0
19 -2 0
-4 -14 0
-18 7 0
19 5 0
14 13 0
-5 8 0
19 12 0
-13 18 0
-8 -1 0
16 -1 0
5 -15 0
15 -1 0
3 18 0
-13 2 0
16 2 0
-16 17 0
