c PROBLEM_020_080_38  vars=20  clausulas=80  k=2
p cnf 20 80
4 -3 0
7 8 0
-19 6 0
-6 20 0
-1 4 0
-10 12 0
2 18 0
8 -12 0
11 -2 0
8 -15 0
5 8 0
19 8 0
-8 4 0
19 -18 0
18 -1 0
7 -3 0
9 13 0
-7 8 0
1 -16 0
20 3 0
-16 1 0
11 20 0
-3 -7 0
-3 -10 0
7 13 0
-6 8 0
6 -17 0
-14 17 0
-3 -6 0
-12 3 0
-5 4 0
6 16 0
13 2 0
-5 13 0
-14 -4 0
3 20 0
-7 -12 0
2 -11 0
-17 16 0
2 20 0
-18 -6 0
-17 3 0
11 -20 0
17 15 0
-20 -3 0
-13 -10 0
-13 -5 0
16 1 0
20 18 0
-7 4 0
-17 15 0
-7 8 0
-18 13 0
14 15 0
12 -13 0
-3 -4 0
8 -11 0
-20 10 0
16 -15 0
-18 20 0
-18 14 0
-11 -5 0
-11 6 0
14 1 0
-16 -18 0
18 -6 0
6 -2 0
-12 -18 0
8 16 0
7 -11 0
-1 -16 0
3 19 0
3 -4 0
-1 2 0
15 19 0
11 -2 0
-6 4 0
11 -3 0
-11 6 0
-11 20 0
