c PROBLEM_020_080_31  vars=20  clausulas=80  k=2
p cnf 20 80
-7 20 0
3 2 0
11 9 0
-20 -16 0
2 16 0
-11 7 0
13 -16 0
6 14 0
6 -7 0
-10 11 0
-15 9 0
-17 10 0
-17 -19 0
-13 17 0
11 8 0
5 -8 0
-20 13 0
-17 20 0
-6 20 0
-15 -4 0
10 -8 0
12 2 0
16 2 0
-1 8 0
6 -20 0
-18 4 0
-20 3 0
-12 15 0
9 3 0
15 1 0
-13 -18 0
7 18 0
14 20 0
-12 15 0
-12 13 0
-9 7 0
-1 17 0
1 7 0
-13 -7 0
-2 -6 0
4 13 0
15 -13 0
-14 20 0
-15 -20 0
-4 1 0
19 -9 0
12 -6 0
11 -16 0
15 8 0
11 14 0
20 -1 0
-2 18 0
6 16 0
-8 4 0
-16 1 0
19 -14 0
13 -5 0
16 -15 0
-14 -7 0
-17 -11 0
7 -5 0
16 8 0
19 17 0
1 15 0
-7 -20 0
20 -1 0
-17 13 0
-19 -7 0
-6 7 0
-20 11 0
3 -1 0
6 1 0
20 18 0
14 6 0
17 13 0
9 -13 0
-11 10 0
17 -19 0
13 9 0
2 -7 0
