c PROBLEM_020_080_06  vars=20  clausulas=80  k=2
p cnf 20 80
5 -2 0
1 13 0
10 16 0
5 7 0
13 17 0
-7 11 0
4 7 0
-15 -7 0
16 -18 0
-13 10 0
-20 -12 0
-16 7 0
7 -8 0
-3 -20 0
18 13 0
-2 -14 0
-8 -9 0
1 17 0
20 -10 0
-12 -17 0
-1 5 0
6 -1 0
-5 -20 0
-19 -14 0
-4 8 0
-8 10 0
-15 -2 0
20 -6 0
6 -5 0
18 4 0
-13 2 0
-19 -14 0
-12 1 0
12 -19 0
18 4 0
-11 10 0
-18 -2 0
-18 -5 0
7 -8 0
13 -11 0
-4 -8 0
-15 3 0
-3 2 0
18 -16 0
-3 15 0
16 7 0
2 1 0
6 9 0
-19 -8 0
-3 -19 0
7 11 0
3 12 0
-6 17 0
-8 7 0
18 -15 0
15 8 0
19 1 0
-12 10 0
20 7 0
18 -14 0
16 19 0
-4 -10 0
-12 4 0
-17 19 0
8 5 0
19 -3 0
10 12 0
20 -18 0
7 -6 0
-17 -16 0
-12 -15 0
20 5 0
-2 -20 0
-6 -20 0
-4 -13 0
18 11 0
-8 -13 0
-19 -11 0
-16 6 0
20 11 0
