c PROBLEM_020_080_44  vars=20  clausulas=80  k=2
p cnf 20 80
-11 9 0
19 -2 0
-3 10 0
-8 -6 0
10 -5 0
17 19 0
20 16 0
-6 14 0
-14 6 0
-17 -20 0
13 -14 0
7 -4 0
-13 -15 0
17 -9 0
-20 -17 0
-13 -4 0
12 -6 0
-9 13 0
-1 -19 0
-15 12 0
-7 17 0
6 3 0
-10 -9 0
-9 1 0
-11 8 0
-15 -6 0
-11 3 0
-4 -3 0
-18 13 0
-9 8 0
11 -1 0
5 -16 0
18 1 0
-5 17 0
-12 18 0
-12 -17 0
-1 -11 0
3 20 0
-1 -12 0
-1 -13 0
17 -12 0
16 -11 0
-16 -3 0
-2 6 0
-5 -17 0
11 10 0
1 8 0
14 17 0
-18 19 0
-1 -3 0
12 16 0
-10 15 0
19 -7 0
-14 -8 0
-13 5 0
19 5 0
12 17 0
3 -16 0
-16 20 0
-13 3 0
6 2 0
-5 -17 0
4 8 0
16 17 0
2 -5 0
-12 3 0
-5 -18 0
15 9 0
6 -12 0
-12 -17 0
-8 -13 0
16 -12 0
18 -16 0
-16 -11 0
10 5 0
-20 -2 0
-13 -8 0
16 6 0
-19 -8 0
-9 11 0
