c PROBLEM_020_080_04  vars=20  clausulas=80  k=2
p cnf 20 80
-12 -3 0
14 8 0
3 18 0
-11 1 0
-20 -3 0
4 5 0
-9 -17 0
2 19 0
-6 8 0
-16 8 0
10 19 0
-19 5 0
-4 -16 0
16 -5 0
-11 -13 0
-12 14 0
-18 6 0
4 -16 0
-10 16 0
-1 5 0
20 13 0
17 -16 0
-11 -10 0
-19 -4 0
-17 13 0
2 -7 0
9 -19 0
11 -8 0
-4 -19 0
2 -17 0
10 -11 0
-12 -5 0
19 3 0
-3 6 0
-7 12 0
-8 7 0
13 11 0
19 7 0
-19 10 0
-15 -20 0
6 -9 0
-6 -7 0
1 13 0
-17 1 0
-9 11 0
-4 -2 0
3 9 0
-4 -15 0
-11 -10 0
11 -16 0
-8 5 0
3 -2 0
19 20 0
11 8 0
-6 11 0
13 -8 0
-1 14 0
-11 14 0
9 8 0
6 19 0
-2 7 0
-18 -12 0
15 4 0
-15 -16 0
15 7 0
14 7 0
11 -4 0
16 -18 0
17 16 0
-5 19 0
19 -8 0
-14 -1 0
15 18 0
7 -2 0
10 15 0
14 15 0
10 -20 0
13 -17 0
-2 -4 0
7 -16 0
