c PROBLEM_020_080_34  vars=20  clausulas=80  k=2
p cnf 20 80
-18 -11 0
10 6 0
-6 -14 0
-13 -18 0
5 20 0
2 -19 0
-1 19 0
-6 1 0
-12 -14 0
7 -1 0
-17 9 0
-12 -13 0
-16 -7 0
-13 -2 0
-18 -17 0
2 8 0
-1 -4 0
-16 8 0
4 -8 0
-17 2 0
13 4 0
-4 -15 0
-9 -5 0
-20 2 0
-1 -17 0
20 6 0
-14 15 0
17 7 0
16 9 0
15 10 0
11 -14 0
2 13 0
-8 12 0
-7 -2 0
7 11 0
-20 11 0
-6 -11 0
-3 -10 0
4 11 0
4 -2 0
-17 -4 0
18 9 0
14 -12 0
4 6 0
-11 -15 0
-8 -2 0
2 -19 0
20 13 0
-13 15 0
5 -2 0
-10 -15 0
-3 2 0
9 -5 0
-20 -12 0
2 14 0
11 -1 0
18 -16 0
-10 -14 0
8 -9 0
20 1 0
-15 -13 0
18 4 0
-3 20 0
19 -12 0
-10 -19 0
4 18 0
10 16 0
8 -3 0
-17 9 0
4 -8 0
-9 -15 0
1 14 0
-7 15 0
-5 -6 0
19 20 0
20 15 0
17 -8 0
16 11 0
-12 15 0
9 4 0
