c PROBLEM_020_080_27  vars=20  clausulas=80  k=2
p cnf 20 80
-17 -11 0
14 10 0
-14 12 0
-15 -3 0
-20 10 0
9 4 0
10 17 0
12 17 0
1 12 0
-1 15 0
14 1 0
5 -13 0
8 2 0
-14 10 0
14 6 0
13 1 0
19 -8 0
1 7 0
7 20 0
13 -18 0
7 -13 0
-18 -12 0
-3 -11 0
5 -10 0
-13 -2 0
-2 3 0
-6 -7 0
-3 -17 0
4 6 0
14 -6 0
-11 14 0
-6 -15 0
-7 11 0
7 12 0
9 10 0
-19 -7 0
17 -11 0
1 -12 0
-8 10 0
9 -19 0
7 15 0
19 14 0
12 4 0
-8 10 0
9 15 0
-4 5 0
-3 -17 0
-7 20 0
-15 16 0
20 -13 0
-1 11 0
19 11 0
1 15 0
18 -3 0
-5 -8 0
2 -14 0
-3 -9 0
-12 -18 0
-4 8 0
-13 -5 0
9 16 0
9 7 0
-13 2 0
10 -12 0
8 6 0
8 -15 0
5 -1 0
17 13 0
-12 19 0
5 -15 0
10 19 0
-2 -16 0
15 -19 0
17 5 0
16 -18 0
-3 -4 0
-8 -6 0
3 9 0
3 10 0
-6 8 0
