c PROBLEM_020_080_30  vars=20  clausulas=80  k=2
p cnf 20 80
-11 -20 0
-7 -15 0
6 -18 0
2 12 0
-13 -12 0
-13 8 0
6 1 0
-2 -20 0
-18 -2 0
-10 -2 0
-12 20 0
7 -3 0
16 11 0
14 8 0
-7 13 0
-19 -15 0
-10 9 0
10 -14 0
-2 -6 0
-13 14 0
-5 -8 0
19 -4 0
10 -9 0
-18 19 0
-8 1 0
-5 -6 0
-10 2 0
6 7 0
12 19 0
-13 15 0
-13 -11 0
13 -11 0
-4 -3 0
16 -10 0
-12 -13 0
-18 11 0
-18 -5 0
-17 1 0
15 -14 0
17 -12 0
16 17 0
-2 -5 0
17 -5 0
-5 9 0
-2 10 0
-19 -11 0
12 -14 0
19 16 0
5 -1 0
12 1 0
-8 15 0
-8 10 0
2 18 0
2 18 0
-11 2 0
8 -13 0
13 -9 0
10 6 0
-4 -9 0
-1 13 0
-15 -17 0
8 -9 0
-13 4 0
4 13 0
11 -12 0
-9 10 0
-1 -18 0
11 8 0
-9 -12 0
1 -18 0
7 2 0
-20 -4 0
9 -19 0
-7 -8 0
-5 -11 0
12 -1 0
-2 -12 0
15 -7 0
-11 -10 0
17 13 0
