c PROBLEM_020_080_05  vars=20  clausulas=80  k=2
p cnf 20 80
-4 -7 0
16 -17 0
6 20 0
15 -19 0
-3 20 0
16 -5 0
11 13 0
-6 -15 0
16 12 0
12 -16 0
-1 -9 0
-18 7 0
-1 -14 0
-17 18 0
15 8 0
-12 -3 0
-3 -15 0
-17 -20 0
-1 -10 0
10 3 0
8 -16 0
-1 8 0
11 14 0
6 -16 0
16 -12 0
-15 -13 0
6 -17 0
2 -14 0
-14 -6 0
11 -4 0
-6 7 0
-1 -15 0
2 1 0
-14 9 0
-16 5 0
-5 -2 0
1 -10 0
-2 11 0
-7 9 0
17 2 0
18 -13 0
-7 -20 0
-14 -10 0
-9 -10 0
-9 6 0
-16 -4 0
6 4 0
20 5 0
-6 -7 0
4 -1 0
-19 17 0
-8 -3 0
-2 17 0
17 -16 0
-5 3 0
-18 -8 0
-20 5 0
8 -12 0
16 18 0
-6 8 0
1 9 0
-19 -13 0
-1 -16 0
10 8 0
-5 -13 0
-7 -17 0
5 3 0
-1 3 0
12 7 0
7 -10 0
7 -17 0
18 -5 0
4 -14 0
-8 -4 0
20 -15 0
6 -20 0
12 -16 0
15 -20 0
-2 13 0
-16 12 0
