c PROBLEM_020_080_11  vars=20  clausulas=80  k=2
p cnf 20 80
6 -12 0
1 16 0
1 -11 0
12 6 0
18 -6 0
-19 -6 0
-10 -14 0
14 -19 0
16 18 0
-6 19 0
5 -7 0
15 -17 0
-12 -3 0
-13 -6 0
18 4 0
5 13 0
15 5 0
-19 -10 0
13 4 0
7 -10 0
-17 -14 0
14 -17 0
-1 -10 0
20 -12 0
2 -16 0
-15 9 0
6 -5 0
-6 -12 0
-17 -7 0
9 3 0
-16 -13 0
-8 10 0
-7 12 0
-10 1 0
-18 8 0
4 -10 0
-10 7 0
-12 -15 0
-6 -2 0
-20 13 0
-17 -8 0
19 3 0
5 -11 0
-8 -11 0
-10 -7 0
17 -11 0
-17 -2 0
-11 17 0
12 4 0
20 -10 0
5 1 0
-20 -17 0
11 7 0
-11 14 0
14 7 0
17 -11 0
6 16 0
9 8 0
12 8 0
-10 -3 0
4 -7 0
-1 14 0
8 19 0
-3 5 0
18 1 0
-1 -2 0
20 3 0
10 -15 0
-2 -10 0
15 18 0
6 11 0
5 -17 0
13 18 0
1 -6 0
-10 -17 0
-9 -2 0
-13 11 0
-12 13 0
-12 -19 0
-1 -17 0
