c PROBLEM_020_080_25  vars=20  clausulas=80  k=2
p cnf 20 80
6 1 0
2 19 0
-1 -3 0
13 17 0
-6 5 0
-12 10 0
18 16 0
-16 -13 0
11 -13 0
-11 -1 0
1 16 0
-18 16 0
5 9 0
-7 19 0
-9 1 0
7 -5 0
17 18 0
5 -11 0
19 17 0
17 8 0
15 6 0
12 14 0
16 -7 0
-13 -5 0
12 3 0
4 11 0
-11 12 0
14 10 0
9 -17 0
-1 11 0
15 8 0
15 -12 0
7 -14 0
-8 -5 0
4 -13 0
14 4 0
-5 -13 0
-9 5 0
18 14 0
-11 -5 0
3 -11 0
18 -5 0
17 -18 0
19 -1 0
-15 11 0
19 20 0
17 6 0
-5 -3 0
-7 12 0
14 13 0
-10 -8 0
-6 -14 0
15 2 0
13 8 0
15 -18 0
-20 12 0
-10 14 0
-4 -12 0
4 20 0
-5 8 0
-8 14 0
16 -8 0
-6 -12 0
4 15 0
-14 1 0
-1 2 0
18 12 0
-17 -2 0
-17 15 0
-13 -9 0
-16 -7 0
5 13 0
-7 -17 0
13 10 0
12 18 0
17 -1 0
5 11 0
8 5 0
17 18 0
7 -18 0
