c PROBLEM_020_080_47  vars=20  clausulas=80  k=2
p cnf 20 80
16 -10 0
-19 10 0
-3 -13 0
1 3 0
1 2 0
2 -20 0
19 -13 0
2 -17 0
-9 -19 0
-11 18 0
-2 10 0
5 4 0
18 4 0
-11 16 0
19 -1 0
-13 -8 0
-5 -12 0
8 14 0
-8 -15 0
2 8 0
-10 3 0
-15 17 0
13 4 0
15 -19 0
-6 19 0
-18 -12 0
11 -18 0
6 -10 0
17 -7 0
-12 -18 0
9 -4 0
15 -10 0
6 -7 0
-20 -7 0
-17 -11 0
-3 15 0
3 13 0
-8 -13 0
15 8 0
-19 20 0
15 -7 0
8 -14 0
-9 11 0
3 19 0
7 -4 0
-5 -9 0
10 18 0
-8 20 0
1 -15 0
-5 -8 0
15 18 0
9 13 0
-16 10 0
13 -6 0
3 1 0
13 16 0
1 4 0
20 -14 0
4 -18 0
-14 5 0
-13 -1 0
12 -3 0
4 -7 0
11 -4 0
-7 16 0
2 14 0
3 -19 0
17 2 0
-14 -16 0
-19 -11 0
20 6 0
2 16 0
-9 2 0
13 15 0
-6 -9 0
3 -16 0
-14 6 0
5 20 0
9 15 0
-2 7 0
