c PROBLEM_020_080_37  vars=20  clausulas=80  k=2
p cnf 20 80
-3 -11 0
-20 -6 0
16 -17 0
-2 17 0
11 -13 0
-6 -3 0
18 -5 0
1 3 0
-18 -1 0
-3 -2 0
-2 -12 0
3 16 0
-19 8 0
-13 4 0
2 -16 0
-11 9 0
13 -4 0
-1 -12 0
7 -18 0
-14 -9 0
6 14 0
-8 14 0
-2 -15 0
17 -20 0
16 -10 0
2 13 0
-1 -8 0
-20 18 0
-18 -12 0
-10 18 0
8 -11 0
-2 18 0
-19 7 0
-5 6 0
-8 1 0
-11 12 0
-5 10 0
15 1 0
-10 12 0
3 -8 0
18 -1 0
11 15 0
-16 7 0
-2 -9 0
20 13 0
-17 1 0
15 6 0
-5 8 0
-14 5 0
14 -7 0
-5 19 0
20 -6 0
-12 -11 0
3 14 0
-18 -20 0
12 -5 0
9 16 0
4 -9 0
-5 -12 0
-13 -7 0
-15 17 0
-20 -1 0
20 4 0
10 9 0
-12 -1 0
-8 14 0
-17 18 0
-8 -17 0
17 3 0
19 -10 0
14 13 0
-14 -15 0
8 10 0
3 -8 0
14 -15 0
-16 -10 0
1 -11 0
-10 -8 0
-16 5 0
-4 9 0
