c PROBLEM_020_080_10  vars=20  clausulas=80  k=2
p cnf 20 80
16 -9 0
-4 -20 0
14 -4 0
-11 -19 0
-3 6 0
-6 -20 0
-5 19 0
-14 20 0
-9 -18 0
-16 7 0
2 7 0
-17 8 0
7 -16 0
13 15 0
-4 20 0
-14 3 0
-16 -18 0
9 2 0
16 -14 0
17 4 0
-1 16 0
-5 -2 0
-7 6 0
-18 -8 0
-1 2 0
-17 11 0
-13 -4 0
11 5 0
-15 -13 0
3 -2 0
12 -14 0
13 -20 0
-10 -19 0
11 2 0
-13 -10 0
-4 -13 0
11 7 0
-18 -9 0
-13 -4 0
-3 14 0
-3 13 0
12 -1 0
-6 19 0
13 4 0
16 4 0
-6 -8 0
19 -5 0
4 19 0
17 14 0
-1 14 0
-3 19 0
9 -18 0
5 1 0
-3 -17 0
9 -16 0
-8 -2 0
-14 12 0
-11 19 0
-12 19 0
14 19 0
1 -16 0
-1 11 0
13 -16 0
-8 -1 0
-8 -1 0
10 2 0
14 6 0
1 10 0
-6 -13 0
12 -9 0
14 -9 0
-1 -18 0
20 -15 0
18 3 0
-3 12 0
18 10 0
20 -9 0
16 12 0
-6 -12 0
2 -6 0
