c PROBLEM_020_080_08  vars=20  clausulas=80  k=2
p cnf 20 80
-10 -11 0
-15 8 0
19 20 0
5 -14 0
15 -12 0
14 5 0
-4 -16 0
-8 9 0
12 20 0
-7 -15 0
-8 19 0
-7 -20 0
-6 14 0
-9 6 0
17 -9 0
-11 19 0
15 -9 0
-6 16 0
10 11 0
-9 1 0
5 1 0
10 -9 0
-5 11 0
-13 3 0
12 5 0
2 6 0
-20 -5 0
18 14 0
14 16 0
-14 -6 0
4 16 0
3 19 0
-8 -17 0
-17 -4 0
-5 -1 0
-10 -4 0
7 19 0
6 1 0
15 -6 0
3 -2 0
-20 -10 0
-6 -19 0
17 2 0
-16 -3 0
20 -6 0
20 -1 0
-14 -10 0
-13 -3 0
7 9 0
10 17 0
9 16 0
-17 -12 0
-3 -19 0
12 17 0
17 6 0
15 18 0
-10 11 0
-2 -9 0
-7 -3 0
8 2 0
12 9 0
-10 -2 0
-19 13 0
9 -16 0
-17 5 0
-6 -2 0
12 -3 0
-17 -2 0
11 -7 0
-8 17 0
-19 12 0
-13 -20 0
-17 -20 0
9 12 0
-15 10 0
3 9 0
-7 -13 0
17 20 0
3 -1 0
13 7 0
