c PROBLEM_020_080_17  vars=20  clausulas=80  k=2
p cnf 20 80
-15 -9 0
20 17 0
1 -5 0
20 -7 0
18 4 0
-3 16 0
17 13 0
-11 -7 0
18 -11 0
-19 -5 0
-11 3 0
-15 -20 0
-11 18 0
14 -6 0
8 12 0
-5 -3 0
-18 6 0
9 13 0
1 7 0
13 5 0
-8 -20 0
-5 19 0
-19 20 0
-15 2 0
-13 -10 0
-18 -7 0
-10 20 0
2 -19 0
-14 -19 0
-10 -5 0
7 -5 0
-13 6 0
-14 4 0
14 -12 0
17 12 0
-4 -3 0
18 11 0
-11 -4 0
16 -1 0
-19 -12 0
16 -2 0
7 -3 0
12 -14 0
9 8 0
13 17 0
6 -3 0
14 1 0
-19 -9 0
-16 1 0
16 -6 0
9 -8 0
-17 8 0
3 5 0
-8 -11 0
20 18 0
-18 20 0
19 -5 0
7 4 0
-4 -14 0
19 8 0
-12 -8 0
-17 -5 0
15 -7 0
-2 1 0
4 -1 0
4 -11 0
-17 9 0
19 -14 0
-8 15 0
-11 20 0
1 18 0
1 14 0
10 7 0
-10 -14 0
-10 -18 0
20 -10 0
10 -13 0
-1 9 0
12 16 0
14 -3 0
