c PROBLEM_020_080_33  vars=20  clausulas=80  k=2
p cnf 20 80
9 -11 0
-18 -4 0
11 7 0
11 -9 0
-10 12 0
-3 -5 0
13 -6 0
14 18 0
10 6 0
-9 -11 0
5 -19 0
8 19 0
-4 9 0
14 -2 0
14 18 0
-17 6 0
9 14 0
19 18 0
3 -7 0
-7 -9 0
-13 -6 0
13 15 0
9 -13 0
6 -4 0
-11 3 0
-11 1 0
10 7 0
6 -10 0
-18 12 0
-2 -13 0
-2 -20 0
-11 12 0
-8 -12 0
-2 15 0
15 20 0
4 -3 0
-4 -9 0
20 5 0
12 10 0
-9 -19 0
20 -18 0
19 13 0
8 -6 0
-15 -9 0
-18 -5 0
-10 1 0
-16 10 0
14 -16 0
-20 8 0
-10 4 0
-10 -17 0
-12 -19 0
-15 20 0
16 1 0
12 -14 0
-2 13 0
1 -11 0
-10 -18 0
7 -20 0
-5 13 0
-1 17 0
19 3 0
15 1 0
-18 -15 0
19 11 0
4 -17 0
7 -12 0
2 -12 0
-4 5 0
10 16 0
17 -4 0
7 15 0
-20 -18 0
11 2 0
-4 15 0
-20 -3 0
-16 17 0
17 12 0
3 8 0
-9 10 0
