c PROBLEM_020_080_42  vars=20  clausulas=80  k=2
p cnf 20 80
6 -9 0
-14 -2 0
-4 -19 0
-5 -16 0
16 -17 0
17 -15 0
-5 -9 0
1 -18 0
1 -20 0
9 -6 0
-5 -20 0
15 -2 0
9 -20 0
-20 4 0
15 -7 0
-9 -19 0
-16 7 0
14 20 0
-6 7 0
19 -3 0
19 9 0
-7 3 0
9 13 0
8 13 0
5 16 0
8 -7 0
17 -18 0
8 -3 0
-6 -5 0
17 -14 0
1 -14 0
-16 -18 0
-6 8 0
-11 -20 0
-3 -15 0
2 -5 0
-17 -3 0
-11 -17 0
16 -1 0
10 -7 0
9 10 0
1 8 0
-14 17 0
-19 14 0
16 2 0
-19 -6 0
-14 8 0
-14 4 0
-20 3 0
-1 13 0
-13 -4 0
2 18 0
-20 -10 0
-8 -5 0
-17 -9 0
19 -16 0
-5 8 0
-5 2 0
-19 -8 0
9 -13 0
-10 18 0
-6 11 0
-7 18 0
-4 15 0
16 7 0
-20 14 0
20 5 0
-13 -16 0
-8 11 0
-4 -12 0
11 8 0
3 19 0
9 4 0
-9 11 0
15 -6 0
-14 6 0
13 19 0
12 8 0
19 16 0
-6 16 0
