c PROBLEM_080_090_03  vars=80  clausulas=90  k=2
p cnf 80 90
-24 -59 0
19 -8 0
-63 -15 0
19 -49 0
64 41 0
-29 78 0
65 49 0
-59 -74 0
-56 -76 0
75 65 0
-44 29 0
-72 -43 0
31 -52 0
76 12 0
-74 -36 0
72 -80 0
34 70 0
55 -10 0
-35 47 0
64 41 0
-47 -10 0
70 -77 0
29 5 0
-50 60 0
41 75 0
4 30 0
-30 6 0
7 -18 0
31 32 0
7 53 0
55 28 0
-59 42 0
32 49 0
-71 63 0
9 -66 0
44 -73 0
-59 -8 0
-58 -45 0
-15 47 0
-75 39 0
-22 -19 0
12 69 0
-50 -20 0
39 -3 0
-64 -27 0
23 27 0
-62 20 0
13 -51 0
-33 67 0
-77 -26 0
-2 -62 0
-16 -19 0
73 -18 0
-56 48 0
-79 14 0
-36 61 0
-59 21 0
17 35 0
-64 -52 0
-17 43 0
-28 -57 0
39 25 0
-44 -69 0
-59 -44 0
-4 -43 0
6 -21 0
6 15 0
-16 -57 0
20 4 0
-29 65 0
-40 46 0
11 -3 0
47 25 0
-61 58 0
-79 57 0
-1 44 0
-49 54 0
3 52 0
29 -23 0
-23 -37 0
-52 15 0
-10 -46 0
-68 -51 0
-20 -57 0
53 35 0
11 43 0
38 -68 0
17 -12 0
-80 -39 0
-62 -49 0
