c PROBLEM_080_090_01  vars=80  clausulas=90  k=2
p cnf 80 90
78 11 0
3 -6 0
6 30 0
-2 -17 0
-26 -32 0
35 -73 0
26 -34 0
-47 -49 0
25 -54 0
77 -1 0
-46 -8 0
69 -8 0
15 -71 0
-31 35 0
15 -68 0
4 19 0
27 64 0
-67 -74 0
-45 -36 0
-55 -28 0
-38 58 0
61 -51 0
-20 8 0
12 -55 0
35 -68 0
-18 -22 0
56 -61 0
-6 27 0
-37 -9 0
-63 50 0
-32 -26 0
32 74 0
-79 -74 0
-30 73 0
-3 -28 0
49 57 0
-80 39 0
28 -24 0
18 -54 0
2 65 0
-75 -17 0
80 5 0
12 49 0
-73 7 0
-78 29 0
70 64 0
38 -19 0
-23 69 0
-16 -64 0
-9 -71 0
-61 -62 0
-22 38 0
-10 29 0
41 42 0
-39 -47 0
8 71 0
-13 -49 0
31 72 0
58 -10 0
33 -55 0
-66 64 0
18 70 0
53 -43 0
21 -26 0
62 12 0
-17 65 0
-79 -70 0
-59 -7 0
-58 -26 0
-18 64 0
39 -41 0
66 -77 0
47 -58 0
40 -29 0
34 35 0
-56 -17 0
40 41 0
-16 44 0
57 -65 0
-54 -48 0
-65 70 0
-14 60 0
76 -43 0
-34 21 0
-52 -38 0
71 -74 0
67 25 0
57 -48 0
45 -53 0
21 -24 0
