c PROBLEM_080_090_43  vars=80  clausulas=90  k=2
p cnf 80 90
-23 -11 0
-42 -21 0
64 -35 0
11 1 0
-49 -2 0
72 75 0
-27 23 0
6 -80 0
-53 -66 0
19 -76 0
28 16 0
-10 -33 0
28 78 0
32 -47 0
77 -30 0
36 -55 0
12 -59 0
13 -48 0
-60 58 0
26 -33 0
35 44 0
60 -63 0
-19 61 0
12 57 0
-69 71 0
52 -15 0
43 -31 0
68 65 0
54 -64 0
64 71 0
-26 -69 0
-78 29 0
55 24 0
41 -75 0
4 -25 0
47 49 0
45 68 0
31 11 0
27 47 0
18 -7 0
62 37 0
-61 12 0
-61 9 0
21 -35 0
-31 75 0
-42 -74 0
78 -19 0
59 25 0
-12 -39 0
-70 -32 0
41 22 0
35 38 0
44 48 0
55 -9 0
-62 38 0
-79 37 0
-6 -4 0
-6 19 0
78 73 0
67 53 0
-40 -39 0
68 -14 0
70 -69 0
80 -51 0
-64 37 0
-11 -74 0
-34 -3 0
32 72 0
-47 -63 0
14 -5 0
-24 -73 0
59 -30 0
56 29 0
17 37 0
-62 -50 0
46 -62 0
67 9 0
-60 -8 0
-58 -63 0
69 20 0
-77 8 0
46 30 0
-8 -67 0
31 34 0
60 7 0
-50 76 0
-43 18 0
-64 45 0
-8 -17 0
-79 -75 0
