c PROBLEM_080_090_35  vars=80  clausulas=90  k=2
p cnf 80 90
-57 80 0
-79 77 0
-16 -52 0
-75 -66 0
-39 -58 0
41 -37 0
-25 62 0
64 1 0
25 29 0
-69 -21 0
46 -15 0
75 -78 0
37 31 0
-26 -19 0
-74 -19 0
24 -39 0
-76 -71 0
24 33 0
57 28 0
73 75 0
13 49 0
28 11 0
-63 55 0
-78 70 0
11 5 0
32 80 0
-55 73 0
5 71 0
24 57 0
-16 -23 0
-9 -69 0
-60 -5 0
71 51 0
-59 -51 0
47 -78 0
14 29 0
-63 -58 0
-4 5 0
60 61 0
-54 -15 0
-45 -80 0
-77 10 0
76 59 0
7 79 0
42 36 0
56 38 0
-64 -63 0
-64 -21 0
16 -46 0
3 68 0
61 -66 0
-1 -3 0
-57 44 0
39 58 0
-64 -8 0
67 34 0
22 -21 0
-50 77 0
10 -72 0
-27 22 0
79 76 0
63 -6 0
-7 -58 0
-39 80 0
48 -2 0
75 -80 0
-73 -68 0
-80 43 0
-6 -29 0
-54 -53 0
-68 7 0
34 -30 0
-70 67 0
-71 -35 0
7 -66 0
-46 -63 0
8 34 0
-12 -20 0
-71 -25 0
44 -29 0
-60 -65 0
16 -79 0
-40 -29 0
33 -18 0
41 12 0
-18 75 0
22 -59 0
-27 17 0
68 23 0
60 -11 0
