c PROBLEM_080_090_04  vars=80  clausulas=90  k=2
p cnf 80 90
49 -45 0
80 60 0
-40 43 0
21 -41 0
71 68 0
-58 33 0
69 -10 0
-58 24 0
15 30 0
1 34 0
17 -52 0
-56 2 0
8 62 0
72 57 0
-13 77 0
13 74 0
-37 79 0
58 -52 0
1 -73 0
47 70 0
-61 -23 0
38 -66 0
9 46 0
-30 12 0
-38 51 0
79 -56 0
35 -10 0
66 -43 0
-39 -1 0
-56 14 0
-19 63 0
65 -64 0
-48 -3 0
-40 20 0
-26 73 0
74 5 0
-44 -76 0
45 9 0
-25 2 0
21 31 0
-36 -72 0
54 55 0
-61 -79 0
11 -16 0
6 -58 0
-56 -55 0
26 50 0
29 -21 0
17 53 0
67 -45 0
23 67 0
-37 48 0
-66 -36 0
-70 21 0
-48 22 0
-35 -8 0
-34 -16 0
19 75 0
7 53 0
-54 75 0
27 -72 0
52 -7 0
-4 68 0
-63 32 0
-51 75 0
43 42 0
47 16 0
-38 -63 0
71 21 0
-6 50 0
-17 -44 0
-71 -68 0
7 -18 0
-37 11 0
-11 78 0
47 62 0
-53 -74 0
-59 -14 0
-42 4 0
-15 18 0
-38 -73 0
3 -28 0
19 -43 0
72 46 0
-61 51 0
65 64 0
29 -20 0
3 -27 0
22 80 0
-25 23 0
