c PROBLEM_080_090_27  vars=80  clausulas=90  k=2
p cnf 80 90
-70 -44 0
-64 -45 0
-63 -73 0
58 39 0
-72 -55 0
15 -48 0
-1 34 0
-61 29 0
-25 39 0
48 -14 0
-64 -66 0
26 17 0
-28 -13 0
-41 59 0
2 -68 0
-66 -43 0
16 -51 0
57 -74 0
37 50 0
-25 28 0
-60 51 0
14 4 0
43 -22 0
63 -7 0
80 -41 0
-30 65 0
-32 77 0
-76 -63 0
40 -36 0
-12 42 0
78 -32 0
18 58 0
52 -60 0
17 44 0
46 60 0
7 -52 0
-41 -62 0
-25 26 0
62 -21 0
7 70 0
8 19 0
36 -31 0
-67 -30 0
6 -75 0
56 28 0
-39 -38 0
-54 -59 0
-80 -13 0
64 55 0
-58 25 0
76 -5 0
-29 45 0
-20 -1 0
23 57 0
-28 -3 0
-54 -52 0
24 -44 0
78 1 0
-56 57 0
15 -6 0
-16 -51 0
3 40 0
44 35 0
-80 -34 0
-10 -64 0
-14 10 0
45 -65 0
22 77 0
-4 -69 0
41 14 0
49 11 0
-20 45 0
20 6 0
-10 79 0
77 53 0
-9 -12 0
-9 -27 0
-64 -45 0
-7 10 0
-50 -33 0
59 33 0
23 -71 0
-69 37 0
26 33 0
-47 -74 0
67 10 0
-38 -21 0
72 -32 0
16 -41 0
-32 -12 0
