c PROBLEM_080_090_21  vars=80  clausulas=90  k=2
p cnf 80 90
-41 -5 0
58 -80 0
78 77 0
-65 70 0
46 -63 0
-4 29 0
-24 -62 0
55 32 0
-37 -58 0
60 -14 0
-56 -2 0
47 -51 0
-58 -51 0
-50 -11 0
63 -6 0
57 20 0
-51 16 0
67 66 0
-31 -44 0
7 -35 0
-45 -48 0
-24 -56 0
56 10 0
73 -11 0
23 19 0
28 37 0
75 -54 0
47 -29 0
-24 -58 0
40 53 0
65 64 0
64 57 0
-9 -39 0
44 76 0
51 30 0
36 40 0
-71 -73 0
-66 46 0
44 59 0
-3 -21 0
19 27 0
8 60 0
70 -76 0
18 -67 0
20 19 0
-64 65 0
40 68 0
-65 74 0
74 -3 0
75 -42 0
31 70 0
-67 24 0
30 -24 0
61 69 0
-15 54 0
11 -27 0
-43 -80 0
49 -22 0
-19 -21 0
38 -4 0
33 64 0
26 -1 0
-19 37 0
-20 -41 0
18 29 0
-34 53 0
56 67 0
43 55 0
80 33 0
36 15 0
-52 19 0
-37 -15 0
50 7 0
-46 13 0
78 -17 0
42 25 0
-2 52 0
-12 -79 0
-70 23 0
-59 -68 0
67 -70 0
28 -5 0
72 62 0
73 70 0
-70 -24 0
62 30 0
-11 -60 0
3 -6 0
-30 -33 0
71 5 0
