c PROBLEM_080_090_39  vars=80  clausulas=90  k=2
p cnf 80 90
14 -67 0
-63 -26 0
-9 -56 0
-14 3 0
-64 30 0
-45 15 0
-5 -45 0
-21 60 0
-70 79 0
74 75 0
-23 -29 0
59 40 0
-12 -6 0
2 58 0
-73 2 0
79 -2 0
-4 18 0
-28 -64 0
-13 -35 0
9 66 0
49 74 0
58 -21 0
32 66 0
-42 6 0
-22 56 0
57 -18 0
-45 17 0
-34 61 0
57 37 0
-65 52 0
-50 10 0
72 -55 0
-73 -51 0
33 -17 0
-68 -39 0
-19 -31 0
33 44 0
6 53 0
60 61 0
-42 -44 0
-7 59 0
43 -27 0
-76 75 0
78 -7 0
43 46 0
52 -37 0
-17 -73 0
-31 -42 0
55 -38 0
32 -50 0
-69 41 0
-18 -25 0
-67 45 0
67 6 0
-48 -36 0
-44 5 0
34 71 0
-54 45 0
68 -61 0
11 73 0
22 -8 0
-74 -44 0
29 40 0
56 -24 0
-1 62 0
-5 -29 0
26 -43 0
4 24 0
-15 80 0
-54 7 0
56 9 0
-60 63 0
-66 33 0
22 -70 0
63 -57 0
-26 -31 0
-77 -53 0
69 -16 0
-67 -78 0
-24 21 0
14 49 0
-77 36 0
-1 20 0
12 -51 0
47 52 0
49 -78 0
16 -28 0
74 -43 0
25 -16 0
38 16 0
