c PROBLEM_080_090_50  vars=80  clausulas=90  k=2
p cnf 80 90
-14 17 0
-39 52 0
39 1 0
69 50 0
-27 -25 0
-72 -1 0
30 63 0
74 53 0
28 -72 0
11 -52 0
-35 -31 0
-34 56 0
12 -62 0
-14 20 0
75 -15 0
70 -10 0
44 -60 0
-37 57 0
-8 -36 0
7 -75 0
75 -73 0
68 -76 0
-42 -34 0
66 71 0
59 55 0
-52 72 0
13 19 0
-59 65 0
22 -13 0
-14 50 0
40 12 0
21 74 0
28 61 0
-15 -21 0
-3 -27 0
-7 32 0
-15 -79 0
-65 -6 0
-2 12 0
6 -17 0
-14 62 0
47 -34 0
19 67 0
40 51 0
-22 -37 0
39 -62 0
50 33 0
3 -58 0
63 29 0
40 22 0
-38 -44 0
53 -18 0
-20 18 0
23 41 0
-55 34 0
-60 -23 0
61 5 0
29 -17 0
-20 -21 0
50 -23 0
24 -32 0
48 -77 0
14 -56 0
-71 -36 0
64 16 0
20 47 0
-52 30 0
-45 -54 0
11 -68 0
-49 -80 0
-26 -17 0
21 -71 0
70 -51 0
14 17 0
76 -60 0
-73 -9 0
-49 -50 0
-7 -40 0
60 79 0
-77 45 0
14 -66 0
33 -46 0
-78 -10 0
74 -75 0
-70 -28 0
-4 -15 0
36 -50 0
-79 -12 0
62 -43 0
-39 -38 0
