c PROBLEM_080_090_30  vars=80  clausulas=90  k=2
p cnf 80 90
72 53 0
-21 19 0
57 27 0
-44 -4 0
50 -16 0
77 10 0
-40 -79 0
62 69 0
-68 -63 0
32 -30 0
-72 46 0
-15 -37 0
-76 -20 0
1 -25 0
-61 45 0
47 -39 0
22 43 0
-50 29 0
20 -18 0
26 10 0
-80 12 0
-35 -31 0
-52 54 0
25 -56 0
50 74 0
-14 -59 0
69 15 0
54 10 0
30 -71 0
-15 41 0
65 59 0
22 -57 0
4 44 0
76 -11 0
-23 34 0
48 8 0
-63 -70 0
57 -41 0
41 36 0
-74 -6 0
24 50 0
65 -38 0
7 2 0
42 78 0
-40 -41 0
-31 -48 0
-32 58 0
-66 76 0
-75 31 0
-51 -45 0
-33 -56 0
-35 27 0
24 39 0
-45 -2 0
3 -70 0
-11 3 0
73 -62 0
67 36 0
-64 -47 0
52 70 0
23 1 0
61 -73 0
-4 71 0
55 51 0
72 71 0
-33 -75 0
-14 4 0
-44 49 0
-43 -10 0
71 5 0
-56 -35 0
75 -16 0
-32 20 0
6 63 0
-4 42 0
71 -48 0
-26 6 0
-6 40 0
28 -60 0
-26 -3 0
69 -39 0
60 -75 0
55 53 0
73 17 0
-44 69 0
7 -9 0
72 78 0
-13 40 0
-61 76 0
-20 -13 0
