c PROBLEM_080_090_20  vars=80  clausulas=90  k=2
p cnf 80 90
-65 -49 0
71 22 0
32 73 0
30 -44 0
22 -9 0
-8 63 0
-6 75 0
-32 67 0
-33 -43 0
-42 52 0
9 56 0
-32 75 0
64 70 0
53 60 0
-54 -24 0
35 -41 0
-4 66 0
-26 65 0
-33 46 0
-55 -28 0
-78 23 0
2 56 0
74 -5 0
34 -8 0
7 -74 0
8 25 0
-40 -79 0
-1 74 0
77 26 0
72 6 0
-67 -6 0
25 -73 0
27 48 0
42 -26 0
44 48 0
-68 -40 0
18 50 0
-71 17 0
62 19 0
-66 -58 0
16 -5 0
-55 78 0
-64 -30 0
57 58 0
-66 37 0
-69 -39 0
-10 24 0
36 -56 0
-58 -65 0
-12 -18 0
-14 -57 0
-16 47 0
-34 -53 0
-41 -25 0
63 -47 0
-3 -29 0
17 -27 0
-21 64 0
56 40 0
-73 45 0
63 -43 0
-55 -9 0
25 -67 0
-20 4 0
12 18 0
-16 -3 0
37 51 0
-43 -20 0
10 -2 0
-68 80 0
28 17 0
2 76 0
61 72 0
-59 -69 0
-13 -38 0
-28 68 0
-50 -20 0
-11 -22 0
-61 64 0
42 35 0
60 -63 0
80 -39 0
62 -72 0
-39 -7 0
-15 -30 0
5 -19 0
68 2 0
-31 20 0
-27 -16 0
-26 61 0
