c PROBLEM_080_090_28  vars=80  clausulas=90  k=2
p cnf 80 90
-47 59 0
-23 -66 0
65 -48 0
-38 4 0
-61 -6 0
-7 78 0
-6 -44 0
-42 21 0
54 -71 0
-3 30 0
8 -17 0
-48 68 0
-10 -1 0
53 -56 0
20 52 0
75 52 0
80 29 0
-18 62 0
17 7 0
-2 29 0
20 -64 0
-7 41 0
55 -64 0
-73 -48 0
-49 23 0
74 -67 0
30 -51 0
52 24 0
-19 -49 0
-44 79 0
-2 -39 0
44 70 0
-46 -43 0
50 69 0
-70 27 0
-9 59 0
59 -62 0
2 -45 0
-18 -13 0
40 -28 0
76 29 0
6 -45 0
20 -39 0
-35 -24 0
33 -63 0
39 69 0
-69 -21 0
-34 -13 0
75 -21 0
2 -51 0
67 66 0
5 38 0
58 -53 0
-28 -11 0
73 -66 0
-4 -20 0
-45 -12 0
-79 31 0
72 20 0
-17 -76 0
57 41 0
-25 22 0
75 61 0
38 -68 0
-43 -54 0
68 42 0
22 -57 0
45 56 0
-37 18 0
74 21 0
14 51 0
77 79 0
-5 -1 0
74 -59 0
62 -6 0
-7 -39 0
-41 12 0
-36 2 0
-9 -68 0
-13 -25 0
-32 23 0
15 40 0
-5 14 0
43 -22 0
-45 -8 0
-60 37 0
-50 -16 0
-2 -26 0
-2 19 0
68 30 0
