c PROBLEM_080_090_34  vars=80  clausulas=90  k=2
p cnf 80 90
-49 -10 0
-35 20 0
8 -9 0
79 -43 0
48 36 0
65 16 0
-69 -31 0
1 16 0
60 18 0
-72 -69 0
3 -79 0
39 75 0
-56 5 0
55 17 0
77 17 0
52 36 0
67 -26 0
-58 -67 0
55 -34 0
-66 -60 0
40 22 0
-3 -76 0
68 -27 0
4 -70 0
71 13 0
-71 -40 0
28 -53 0
-4 -14 0
15 31 0
46 73 0
14 68 0
5 -51 0
62 42 0
-57 -62 0
-80 -24 0
76 52 0
34 -11 0
35 -21 0
-64 -38 0
39 -78 0
-76 -12 0
-3 63 0
54 16 0
51 34 0
-69 -30 0
-7 72 0
-11 43 0
-2 40 0
45 -10 0
-40 74 0
74 -33 0
52 -65 0
-1 44 0
54 -36 0
-69 -27 0
53 -41 0
46 -10 0
25 -65 0
-20 -11 0
19 -28 0
49 25 0
-67 -34 0
-61 10 0
58 -66 0
28 72 0
27 59 0
-50 8 0
-57 -27 0
13 -12 0
-39 47 0
-41 -22 0
59 29 0
6 10 0
-11 -48 0
-66 26 0
33 -78 0
9 11 0
-35 30 0
47 -37 0
-45 41 0
15 54 0
32 57 0
-2 -22 0
17 71 0
68 37 0
-8 66 0
6 10 0
-75 -40 0
-47 -23 0
13 -37 0
