c PROBLEM_080_090_02  vars=80  clausulas=90  k=2
p cnf 80 90
51 52 0
-38 25 0
61 -76 0
-75 -16 0
22 -16 0
-15 -56 0
39 26 0
-63 -19 0
18 67 0
-67 9 0
-44 55 0
36 -12 0
76 -22 0
41 -63 0
-41 -69 0
25 58 0
61 -78 0
-60 58 0
1 -2 0
-45 -62 0
68 79 0
31 12 0
10 54 0
33 -43 0
80 20 0
-19 -46 0
8 1 0
18 57 0
38 41 0
-5 -52 0
-72 48 0
-1 23 0
3 32 0
-7 -77 0
34 8 0
-69 38 0
-5 17 0
-46 -51 0
-70 -23 0
73 69 0
65 30 0
-69 37 0
3 -18 0
70 -68 0
-42 -39 0
26 80 0
6 15 0
-55 69 0
-6 12 0
69 -35 0
-76 -23 0
-18 -23 0
6 59 0
47 -7 0
80 1 0
-71 -41 0
-46 13 0
-44 -11 0
-74 -4 0
29 -66 0
-50 58 0
48 53 0
26 65 0
-56 -49 0
-15 37 0
77 28 0
18 -5 0
-3 -30 0
-58 -77 0
32 -5 0
-79 31 0
-46 -2 0
-21 20 0
39 -27 0
-13 28 0
-18 33 0
32 -74 0
40 24 0
67 69 0
20 -77 0
35 41 0
10 -30 0
-70 11 0
69 15 0
14 -62 0
-3 64 0
-64 -43 0
49 -22 0
38 -55 0
3 -25 0
