c PROBLEM_080_090_15  vars=80  clausulas=90  k=2
p cnf 80 90
26 67 0
50 34 0
-16 -53 0
-50 -44 0
42 -16 0
-78 33 0
-69 -79 0
-47 -29 0
34 -75 0
-46 -28 0
48 -5 0
-14 42 0
68 -37 0
-21 32 0
35 -29 0
-78 58 0
40 20 0
-76 -61 0
66 -50 0
36 17 0
73 62 0
-16 32 0
52 -44 0
-47 -38 0
49 -36 0
-48 -72 0
74 40 0
-21 -9 0
56 -40 0
42 -24 0
73 22 0
-27 61 0
-21 12 0
-80 43 0
-80 25 0
19 3 0
-31 23 0
40 78 0
54 6 0
30 5 0
-32 -34 0
-7 15 0
-10 74 0
-17 -50 0
-66 8 0
-50 31 0
-62 58 0
71 -1 0
10 -74 0
-32 -7 0
53 -2 0
42 60 0
56 -28 0
65 45 0
71 -60 0
-14 -38 0
-69 -24 0
-33 -43 0
-78 -66 0
-11 -5 0
-60 -2 0
-15 -57 0
-27 4 0
57 -44 0
-13 51 0
-5 36 0
-55 64 0
-12 51 0
45 3 0
-41 -12 0
-13 -40 0
-21 -59 0
77 -33 0
11 -72 0
-36 -44 0
-45 39 0
70 63 0
-14 -51 0
58 -48 0
72 -15 0
-35 -41 0
55 -67 0
-1 -34 0
-77 49 0
-8 -76 0
55 35 0
-79 80 0
37 59 0
18 21 0
32 -19 0
