c PROBLEM_080_090_12  vars=80  clausulas=90  k=2
p cnf 80 90
-47 -51 0
18 -16 0
45 48 0
-30 -54 0
-62 64 0
63 71 0
36 2 0
-62 -67 0
10 43 0
54 -13 0
-26 74 0
-6 -75 0
-7 -39 0
-39 -1 0
-62 76 0
29 -22 0
-1 -74 0
-57 -65 0
11 -8 0
1 40 0
1 -40 0
-15 12 0
-35 -42 0
37 16 0
-18 -73 0
-34 -78 0
38 -26 0
17 -32 0
-3 25 0
39 -43 0
-68 20 0
-38 68 0
-18 -49 0
-53 54 0
-36 59 0
-8 40 0
-31 -3 0
39 25 0
-23 14 0
-19 -77 0
-51 -53 0
-60 2 0
-64 -69 0
15 -55 0
80 -53 0
-47 -53 0
-57 15 0
70 30 0
21 -23 0
-45 -79 0
42 79 0
-73 -6 0
-44 23 0
-52 78 0
-34 12 0
2 -61 0
28 -57 0
32 -41 0
-66 -36 0
-75 -29 0
9 -48 0
-67 -22 0
-47 -61 0
30 -69 0
80 5 0
-9 -71 0
79 66 0
65 62 0
77 76 0
38 51 0
-33 15 0
61 79 0
77 -14 0
-46 62 0
-50 -56 0
42 -19 0
57 32 0
4 -25 0
-27 -15 0
72 -15 0
26 27 0
60 69 0
-50 -41 0
-59 9 0
18 69 0
-7 -50 0
55 -34 0
-27 37 0
-58 -24 0
-11 44 0
