c PROBLEM_080_090_19  vars=80  clausulas=90  k=2
p cnf 80 90
62 -79 0
-3 -20 0
-68 61 0
51 75 0
-80 -1 0
22 35 0
12 18 0
44 75 0
16 -35 0
76 -68 0
-71 51 0
-54 -53 0
16 23 0
-14 -6 0
35 15 0
32 -38 0
2 -47 0
-24 -68 0
34 -16 0
6 73 0
41 50 0
30 -8 0
80 9 0
-8 24 0
-4 -16 0
-43 -51 0
-5 15 0
36 44 0
37 58 0
25 37 0
66 -32 0
-29 -20 0
39 -34 0
-18 26 0
56 -48 0
-54 80 0
-42 -34 0
-55 30 0
28 38 0
21 7 0
40 -54 0
65 39 0
4 59 0
-9 6 0
-71 -33 0
46 2 0
-45 17 0
11 20 0
64 -23 0
13 43 0
39 -44 0
19 16 0
73 69 0
-27 -63 0
52 53 0
-37 48 0
47 7 0
33 40 0
61 -10 0
16 -60 0
22 64 0
70 36 0
55 43 0
-71 -14 0
-54 -72 0
-15 -67 0
-29 7 0
-76 43 0
-62 54 0
-31 74 0
20 -48 0
70 18 0
-26 45 0
68 -57 0
-5 79 0
-74 61 0
-73 -57 0
50 57 0
78 -28 0
-4 -41 0
-65 77 0
-60 43 0
57 -79 0
-32 -40 0
17 51 0
-49 -39 0
-47 -1 0
32 39 0
-73 72 0
67 -66 0
