c PROBLEM_080_090_11  vars=80  clausulas=90  k=2
p cnf 80 90
-73 -58 0
25 -27 0
65 37 0
-36 5 0
17 78 0
28 -1 0
32 23 0
73 72 0
17 30 0
46 -26 0
9 76 0
54 31 0
-29 61 0
-7 55 0
-62 -22 0
-12 29 0
27 -48 0
72 32 0
10 -28 0
31 -44 0
45 10 0
44 8 0
-20 -39 0
-59 35 0
31 62 0
48 -28 0
50 -58 0
12 -11 0
-64 2 0
70 71 0
66 -22 0
-15 5 0
-22 39 0
77 18 0
79 23 0
-42 1 0
-1 -13 0
24 13 0
7 -38 0
-16 20 0
-19 -31 0
22 -18 0
78 6 0
58 76 0
-27 -75 0
47 -32 0
14 -25 0
43 -11 0
51 12 0
-76 41 0
57 6 0
-40 -69 0
-27 32 0
-17 -53 0
52 -4 0
-51 -41 0
10 40 0
44 17 0
1 -11 0
-1 4 0
56 8 0
1 -21 0
79 -45 0
30 68 0
61 6 0
36 3 0
-80 69 0
27 -40 0
53 -38 0
-60 2 0
48 -80 0
-43 -38 0
14 -63 0
59 58 0
51 2 0
-77 67 0
80 11 0
-49 -54 0
44 33 0
69 35 0
-36 47 0
66 -34 0
-62 -74 0
71 38 0
-19 -20 0
-17 59 0
-63 -42 0
-55 59 0
-26 77 0
-16 -2 0
