c PROBLEM_080_090_14  vars=80  clausulas=90  k=2
p cnf 80 90
67 -53 0
28 -60 0
-56 25 0
32 -78 0
-13 -73 0
-35 51 0
-59 69 0
-41 57 0
57 -9 0
-58 30 0
-49 63 0
-72 79 0
28 -7 0
-56 -80 0
7 64 0
-5 27 0
16 31 0
7 48 0
-63 -24 0
58 29 0
-12 42 0
-22 47 0
46 72 0
-61 29 0
-42 -52 0
4 21 0
-34 30 0
27 71 0
-19 -9 0
22 -79 0
15 -36 0
44 -24 0
-16 38 0
-79 -58 0
24 80 0
42 -18 0
62 29 0
55 47 0
-53 42 0
52 69 0
56 1 0
41 -15 0
54 -35 0
33 8 0
-75 50 0
-68 27 0
48 -55 0
23 -5 0
-76 -9 0
8 -20 0
-37 -18 0
-69 72 0
9 65 0
76 -33 0
43 -3 0
-26 34 0
14 10 0
74 -77 0
-45 58 0
8 -52 0
23 17 0
59 -57 0
52 68 0
27 54 0
56 -72 0
-62 24 0
-15 -3 0
11 -6 0
20 -49 0
-12 -58 0
-39 48 0
53 22 0
22 -31 0
2 -1 0
-51 -43 0
49 60 0
70 55 0
-24 58 0
-27 -66 0
-44 76 0
20 -11 0
-46 48 0
38 65 0
-40 -66 0
8 -73 0
25 -37 0
-56 -46 0
-31 27 0
25 26 0
-69 24 0
