c PROBLEM_020_070_25  vars=20  clausulas=70  k=2
p cnf 20 70
20 -17 0
18 -2 0
19 -8 0
-16 -12 0
-3 17 0
2 4 0
4 20 0
2 -3 0
-15 20 0
5 8 0
12 -18 0
7 -5 0
16 5 0
-20 7 0
13 -5 0
-15 -8 0
-16 -12 0
-15 -9 0
13 12 0
17 -8 0
-16 3 0
7 12 0
20 15 0
-1 -5 0
-3 -6 0
-5 -20 0
-17 -5 0
-7 16 0
6 -13 0
18 -5 0
-1 -17 0
-9 -3 0
9 -20 0
20 -18 0
-15 16 0
-6 -5 0
-16 13 0
-5 -17 0
6 16 0
-12 -13 0
-5 15 0
-10 -20 0
-7 -10 0
14 17 0
10 2 0
-14 10 0
-11 -2 0
2 -9 0
19 9 0
14 18 0
4 6 0
1 5 0
-9 7 0
7 19 0
15 -3 0
-7 6 0
-15 -1 0
-11 -3 0
18 1 0
3 -16 0
-8 6 0
15 12 0
-2 -10 0
7 14 0
-13 -7 0
3 13 0
-6 13 0
-13 6 0
3 14 0
9 -17 0
