c PROBLEM_020_070_44  vars=20  clausulas=70  k=2
p cnf 20 70
-2 6 0
15 -3 0
-15 -8 0
-13 10 0
1 19 0
15 -20 0
-10 1 0
14 6 0
-2 15 0
-9 -14 0
-13 17 0
-4 1 0
19 -4 0
-8 3 0
-2 1 0
-2 -16 0
-10 -18 0
-5 -18 0
12 9 0
1 7 0
19 10 0
6 13 0
-2 14 0
17 -7 0
17 -19 0
12 16 0
3 -1 0
-3 -9 0
3 -18 0
-3 14 0
10 -9 0
1 -18 0
5 20 0
-2 6 0
-6 11 0
11 -16 0
10 13 0
-6 -7 0
-4 8 0
-6 20 0
-20 -14 0
18 19 0
6 1 0
-14 11 0
-18 20 0
12 -9 0
16 -18 0
14 2 0
-18 2 0
3 -7 0
-20 -2 0
19 -11 0
1 -12 0
-4 -6 0
20 4 0
-15 14 0
-9 -16 0
4 5 0
5 -19 0
-18 9 0
-19 -15 0
-12 -14 0
7 4 0
-7 9 0
-8 2 0
-20 -14 0
9 1 0
-1 2 0
4 9 0
-6 17 0
