c PROBLEM_020_070_19  vars=20  clausulas=70  k=2
p cnf 20 70
15 12 0
6 13 0
-9 7 0
-20 -12 0
6 -20 0
-16 -8 0
10 8 0
-8 14 0
12 11 0
16 -13 0
1 -9 0
-7 -17 0
-18 13 0
16 19 0
-9 -12 0
-4 5 0
11 1 0
-18 -12 0
-12 6 0
-17 -6 0
5 3 0
-11 9 0
5 -6 0
18 -10 0
-7 1 0
8 14 0
2 12 0
10 19 0
1 -4 0
-13 4 0
-16 -1 0
-1 -16 0
6 9 0
-6 -4 0
2 -4 0
12 7 0
14 -12 0
18 13 0
12 -15 0
18 13 0
6 16 0
-13 -1 0
9 -2 0
-18 13 0
17 6 0
-5 -6 0
-6 -13 0
-3 -15 0
18 9 0
-15 6 0
-15 19 0
-5 10 0
13 -1 0
15 -4 0
16 5 0
-1 -5 0
12 -4 0
1 9 0
6 1 0
12 3 0
-16 -15 0
1 -2 0
9 17 0
9 14 0
-16 2 0
-18 -5 0
6 -7 0
-19 6 0
11 -14 0
15 4 0
