c PROBLEM_020_070_12  vars=20  clausulas=70  k=2
p cnf 20 70
8 -3 0
8 16 0
-8 6 0
6 -2 0
-15 7 0
15 -1 0
-3 -14 0
-3 -13 0
-14 1 0
9 -19 0
3 13 0
14 -1 0
-8 17 0
9 4 0
11 3 0
-13 15 0
-18 -5 0
11 1 0
-20 11 0
-15 10 0
-19 -5 0
19 12 0
4 -5 0
-14 -6 0
3 -5 0
20 4 0
18 -2 0
15 18 0
-3 -6 0
11 1 0
9 16 0
2 8 0
-12 -9 0
3 -17 0
-6 -9 0
-4 15 0
-17 8 0
8 -20 0
7 5 0
16 -5 0
13 -10 0
18 -3 0
-13 -19 0
8 -17 0
-16 -11 0
-15 18 0
13 -6 0
16 14 0
8 12 0
17 19 0
-17 3 0
-2 -10 0
8 -19 0
-18 3 0
9 -20 0
-7 11 0
10 -18 0
-11 -2 0
-15 -20 0
-5 8 0
-6 20 0
5 -2 0
-4 -8 0
5 13 0
17 -1 0
4 -15 0
7 -1 0
-5 -2 0
-9 20 0
-1 -13 0
