c PROBLEM_020_070_02  vars=20  clausulas=70  k=2
p cnf 20 70
7 9 0
17 20 0
-12 -5 0
10 15 0
-6 17 0
9 -16 0
1 17 0
-7 15 0
18 9 0
-18 13 0
-6 18 0
-11 13 0
1 -5 0
-10 -18 0
10 14 0
13 -12 0
-10 11 0
-19 10 0
-2 -15 0
5 -15 0
-4 16 0
18 2 0
-17 -20 0
-11 -20 0
-13 -3 0
4 -13 0
14 -12 0
-7 8 0
-5 -11 0
-13 5 0
2 15 0
-9 12 0
-10 -18 0
12 2 0
19 17 0
16 12 0
8 -10 0
5 -9 0
-6 -12 0
-4 17 0
-1 -6 0
2 5 0
-1 -13 0
15 14 0
14 7 0
-15 -5 0
12 -19 0
9 5 0
-19 -13 0
-7 -16 0
-19 -5 0
-15 -10 0
6 -14 0
-7 13 0
-3 -2 0
14 7 0
15 -19 0
10 9 0
17 -1 0
-18 -1 0
11 -13 0
-18 11 0
12 17 0
3 -11 0
15 -2 0
-19 -1 0
-5 7 0
-6 -17 0
6 14 0
6 11 0
