c PROBLEM_020_070_35  vars=20  clausulas=70  k=2
p cnf 20 70
3 -10 0
-20 -1 0
16 -11 0
13 19 0
-16 -14 0
-6 19 0
-7 9 0
-11 5 0
11 -7 0
-14 -7 0
-13 14 0
-15 1 0
3 -13 0
12 15 0
-13 -9 0
-20 18 0
14 17 0
6 -10 0
-2 -11 0
-19 13 0
6 -3 0
9 3 0
-20 19 0
10 -13 0
9 -1 0
-14 -11 0
-15 12 0
-8 18 0
-1 18 0
20 13 0
-12 5 0
-14 -2 0
7 -11 0
-16 11 0
-13 11 0
15 -3 0
13 -8 0
-2 19 0
-8 -16 0
-13 -4 0
9 -6 0
-15 -17 0
-14 -15 0
6 -4 0
-14 -9 0
-11 19 0
6 8 0
-20 17 0
-18 -7 0
18 7 0
-16 12 0
16 -14 0
-2 11 0
-7 -10 0
16 3 0
11 20 0
-19 -10 0
-17 4 0
18 -12 0
-2 5 0
-18 5 0
-15 11 0
-8 -18 0
-13 18 0
15 -17 0
-15 -19 0
-7 -1 0
13 12 0
-7 12 0
-12 19 0
