c PROBLEM_020_070_09  vars=20  clausulas=70  k=2
p cnf 20 70
-16 -6 0
-20 5 0
-20 6 0
3 18 0
-15 11 0
1 -9 0
7 9 0
-14 -18 0
-3 -10 0
1 -16 0
8 14 0
18 -7 0
-16 -20 0
7 -1 0
3 14 0
10 -14 0
2 19 0
-4 -2 0
7 14 0
-12 1 0
12 -18 0
-1 2 0
-20 16 0
10 11 0
19 17 0
-10 8 0
-3 -14 0
-5 -14 0
-1 20 0
-1 6 0
-18 3 0
-14 13 0
-5 10 0
-18 -7 0
5 15 0
17 -3 0
3 16 0
2 -19 0
-9 -11 0
-4 15 0
17 16 0
2 1 0
10 2 0
-9 16 0
16 14 0
9 14 0
12 17 0
-17 1 0
-16 13 0
-7 -6 0
3 1 0
-6 20 0
20 -2 0
-14 12 0
16 11 0
6 2 0
16 -7 0
-7 -16 0
8 9 0
14 -17 0
2 -10 0
-8 -16 0
-2 -12 0
17 -8 0
-19 -11 0
4 12 0
4 5 0
8 15 0
12 -10 0
20 -14 0
