c PROBLEM_020_070_28  vars=20  clausulas=70  k=2
p cnf 20 70
-1 -8 0
15 -18 0
13 15 0
-9 16 0
5 17 0
-13 16 0
-17 6 0
-13 15 0
4 -11 0
9 -12 0
19 16 0
-20 -17 0
11 -19 0
16 7 0
15 6 0
10 -3 0
-4 16 0
-13 19 0
-8 7 0
-20 2 0
-12 -15 0
2 4 0
10 7 0
13 8 0
9 17 0
17 15 0
-3 18 0
3 11 0
1 -14 0
-12 -17 0
-20 5 0
-11 6 0
-19 4 0
-7 -9 0
2 4 0
14 -6 0
16 6 0
-5 -10 0
-13 4 0
14 8 0
-12 -17 0
-9 18 0
-18 -17 0
12 -7 0
11 -20 0
-17 19 0
18 10 0
2 8 0
16 18 0
-13 20 0
5 -20 0
-6 15 0
20 -11 0
-3 -10 0
13 -19 0
-16 -15 0
-8 7 0
-6 11 0
8 -4 0
-9 -13 0
7 20 0
-17 9 0
8 -10 0
-18 19 0
7 1 0
-2 17 0
14 -20 0
-12 -11 0
3 15 0
-1 16 0
