c PROBLEM_020_070_33  vars=20  clausulas=70  k=2
p cnf 20 70
3 17 0
15 -8 0
-6 7 0
10 -16 0
18 -19 0
-2 19 0
20 8 0
11 4 0
-6 14 0
1 20 0
-12 -9 0
14 -18 0
1 -18 0
-16 14 0
-13 -10 0
-13 10 0
-2 -14 0
13 -19 0
-1 20 0
1 11 0
5 -15 0
11 -2 0
14 -12 0
-17 -15 0
-11 14 0
16 -19 0
-10 7 0
16 -14 0
20 -11 0
5 16 0
7 -5 0
12 2 0
17 11 0
-9 -20 0
-6 -9 0
-10 12 0
15 -9 0
-6 19 0
20 -16 0
7 -16 0
11 5 0
-11 7 0
11 6 0
-7 10 0
11 19 0
-12 -4 0
-11 10 0
11 4 0
-3 -6 0
15 6 0
18 10 0
-17 15 0
20 10 0
-19 -16 0
-15 2 0
2 7 0
-20 2 0
-17 11 0
-8 -17 0
8 -4 0
-5 16 0
12 -4 0
2 9 0
-13 8 0
19 -8 0
-19 8 0
-15 -13 0
-2 -5 0
-19 18 0
14 10 0
