c PROBLEM_020_070_21  vars=20  clausulas=70  k=2
p cnf 20 70
20 8 0
-5 14 0
8 11 0
-8 -17 0
-1 11 0
13 17 0
-20 -13 0
8 11 0
4 9 0
17 -5 0
-17 4 0
16 -5 0
-9 7 0
11 -13 0
-15 -16 0
16 8 0
5 -12 0
-6 -9 0
-19 -15 0
-16 19 0
18 -2 0
-9 20 0
-11 1 0
16 5 0
-12 -1 0
12 2 0
3 4 0
-11 2 0
-1 -17 0
3 -1 0
-10 -17 0
18 -15 0
7 -4 0
18 8 0
-4 14 0
-18 -16 0
1 10 0
-11 1 0
-20 19 0
13 -8 0
-10 1 0
-4 7 0
-4 7 0
7 -11 0
7 -19 0
6 -18 0
-1 11 0
-16 -12 0
7 14 0
13 12 0
-8 -10 0
-20 16 0
2 16 0
9 -7 0
5 -18 0
-18 10 0
-8 -4 0
-11 19 0
-17 10 0
8 18 0
-6 -2 0
14 2 0
11 1 0
10 -12 0
6 -17 0
2 -5 0
-8 -1 0
20 8 0
-8 15 0
12 17 0
