c PROBLEM_020_070_37  vars=20  clausulas=70  k=2
p cnf 20 70
-17 15 0
-18 10 0
6 7 0
-16 -2 0
-2 16 0
-11 13 0
-9 12 0
-8 7 0
19 -16 0
-4 -7 0
19 -5 0
17 3 0
-4 9 0
4 -19 0
11 -18 0
-12 4 0
7 11 0
-2 -20 0
-9 -18 0
19 9 0
-4 1 0
-3 -11 0
-7 18 0
11 -20 0
11 -20 0
-15 2 0
-5 20 0
5 -2 0
20 -10 0
-8 2 0
19 -18 0
3 -6 0
4 2 0
11 -16 0
-14 -15 0
1 16 0
-3 4 0
11 -1 0
-7 -1 0
5 -16 0
19 -11 0
17 3 0
-17 4 0
-4 -9 0
6 17 0
-7 10 0
-8 -3 0
13 8 0
19 7 0
-18 10 0
-14 19 0
-13 -5 0
-1 14 0
16 -15 0
-16 5 0
-15 -10 0
2 13 0
-13 15 0
7 18 0
3 -14 0
-16 -15 0
-20 -8 0
-13 10 0
-9 -20 0
20 -2 0
-14 -6 0
-16 7 0
14 7 0
14 -5 0
3 -5 0
