c PROBLEM_020_070_20  vars=20  clausulas=70  k=2
p cnf 20 70
-17 -5 0
2 8 0
1 -6 0
15 7 0
15 -1 0
10 11 0
-10 -19 0
2 -8 0
11 -2 0
13 14 0
12 -15 0
-12 13 0
3 -5 0
7 15 0
8 2 0
-14 -10 0
-9 -20 0
-19 -12 0
10 6 0
-2 -20 0
3 -16 0
-13 -1 0
7 1 0
18 12 0
9 -11 0
-16 -10 0
7 5 0
6 -14 0
10 -15 0
3 17 0
-14 11 0
5 10 0
-11 2 0
12 2 0
-1 -18 0
4 -2 0
-17 -9 0
13 15 0
13 -5 0
20 12 0
-7 -11 0
-17 14 0
10 -13 0
-1 13 0
3 -16 0
17 15 0
-1 -2 0
2 20 0
-17 20 0
-6 -12 0
12 9 0
-2 6 0
-16 -19 0
16 18 0
-1 17 0
16 19 0
-17 4 0
-11 16 0
-19 4 0
4 -9 0
-17 3 0
17 -2 0
16 2 0
11 -19 0
-13 9 0
7 1 0
7 5 0
13 -2 0
-6 -4 0
12 -16 0
