c PROBLEM_020_070_15  vars=20  clausulas=70  k=2
p cnf 20 70
-6 14 0
-18 9 0
3 -14 0
-1 5 0
1 14 0
-12 -18 0
-18 5 0
-16 5 0
15 1 0
-17 2 0
-11 12 0
-18 8 0
-15 -6 0
12 -5 0
-20 -16 0
-6 -7 0
18 -19 0
-11 13 0
19 6 0
19 -15 0
18 9 0
8 -15 0
-15 -18 0
4 5 0
-9 -10 0
-9 17 0
-16 2 0
8 -7 0
-10 12 0
9 -18 0
16 15 0
2 1 0
-10 -1 0
-6 -10 0
3 19 0
-5 17 0
14 2 0
15 3 0
-11 -8 0
-17 7 0
-18 15 0
-5 7 0
17 -9 0
-14 -7 0
-20 -14 0
4 -11 0
3 6 0
-20 11 0
10 -5 0
19 -14 0
4 -16 0
13 -1 0
-8 11 0
-5 19 0
-13 19 0
3 -12 0
20 -4 0
-20 2 0
6 -5 0
9 17 0
6 11 0
3 -12 0
5 -3 0
13 4 0
-14 17 0
17 1 0
6 5 0
-18 -7 0
19 12 0
-10 17 0
