c PROBLEM_020_070_34  vars=20  clausulas=70  k=2
p cnf 20 70
-11 -14 0
4 17 0
12 13 0
-15 7 0
-15 -16 0
-3 9 0
-14 8 0
6 5 0
-2 10 0
-1 -18 0
16 -20 0
-7 -2 0
15 -4 0
15 9 0
-5 20 0
4 13 0
11 -8 0
2 -16 0
-17 -15 0
-7 15 0
20 -13 0
14 7 0
12 -17 0
13 -6 0
-15 3 0
7 -11 0
19 4 0
-4 20 0
19 -12 0
-10 8 0
19 6 0
16 -14 0
13 10 0
20 -11 0
1 12 0
14 11 0
-5 -8 0
8 -19 0
-12 -7 0
4 15 0
1 11 0
-5 11 0
-5 18 0
5 -10 0
5 -11 0
2 3 0
-15 -20 0
16 15 0
-5 -6 0
-5 -16 0
-3 -20 0
14 -16 0
10 3 0
11 -2 0
-3 -10 0
-17 -20 0
-16 2 0
13 -10 0
14 3 0
-10 3 0
-9 -12 0
-1 8 0
-7 4 0
-17 -8 0
-16 19 0
8 -2 0
2 11 0
-2 -14 0
-9 -10 0
-3 -13 0
