c PROBLEM_020_070_47  vars=20  clausulas=70  k=2
p cnf 20 70
-8 -9 0
-2 -8 0
-15 16 0
20 -7 0
9 -6 0
5 7 0
-18 2 0
16 2 0
8 -3 0
17 20 0
18 -20 0
13 12 0
-15 12 0
-13 15 0
1 11 0
-1 -6 0
20 19 0
11 17 0
5 -15 0
-13 14 0
-3 2 0
-12 -9 0
17 18 0
-14 -5 0
-3 6 0
-2 -17 0
11 -2 0
20 3 0
-1 9 0
-18 -5 0
9 -20 0
8 20 0
-5 3 0
-14 4 0
-5 12 0
10 -20 0
4 13 0
1 -9 0
-2 -7 0
13 -5 0
-11 9 0
7 -4 0
-13 3 0
-13 -20 0
8 16 0
-14 -18 0
-11 -1 0
5 18 0
-3 2 0
4 -8 0
8 -17 0
-15 -4 0
18 12 0
-8 3 0
-3 -16 0
12 20 0
-10 18 0
19 13 0
-16 2 0
13 -18 0
8 3 0
-11 -15 0
-15 1 0
6 -4 0
-18 14 0
-15 -13 0
-14 -13 0
11 -7 0
8 14 0
13 -1 0
