c PROBLEM_020_070_10  vars=20  clausulas=70  k=2
p cnf 20 70
11 -12 0
-5 -9 0
-20 -9 0
-9 -11 0
18 -4 0
-20 -3 0
6 3 0
-1 -5 0
8 -10 0
13 10 0
-9 4 0
-7 11 0
-15 -1 0
19 -8 0
-20 3 0
7 -11 0
15 6 0
2 18 0
14 -19 0
-2 13 0
-12 13 0
-17 -5 0
3 -16 0
8 12 0
16 7 0
-10 14 0
18 10 0
-13 16 0
13 5 0
15 16 0
20 5 0
-12 5 0
11 3 0
-9 -15 0
11 -16 0
-1 11 0
19 -2 0
-17 7 0
16 15 0
-16 -1 0
17 6 0
-9 -3 0
11 12 0
-18 20 0
-1 19 0
10 14 0
3 17 0
14 12 0
-13 9 0
14 18 0
19 -5 0
-2 18 0
-16 -11 0
-7 15 0
16 12 0
-9 20 0
-3 16 0
11 -12 0
8 1 0
6 19 0
1 -13 0
-14 3 0
6 17 0
-16 -4 0
-15 11 0
20 11 0
1 -10 0
-13 -9 0
-15 -2 0
-14 -19 0
