c PROBLEM_020_070_18  vars=20  clausulas=70  k=2
p cnf 20 70
7 -20 0
-9 -15 0
14 -5 0
18 16 0
9 19 0
-2 4 0
-6 -13 0
-2 19 0
-7 20 0
1 -12 0
-10 -12 0
9 -7 0
-7 15 0
4 5 0
-9 5 0
-6 -12 0
-14 18 0
-7 11 0
-1 -12 0
-4 10 0
-3 4 0
20 -14 0
9 13 0
-20 15 0
10 5 0
15 -3 0
-2 -5 0
4 17 0
6 2 0
3 16 0
15 2 0
-5 -11 0
-4 15 0
-2 -12 0
-1 -4 0
1 -5 0
-20 -8 0
-12 -1 0
-15 11 0
-13 -20 0
4 1 0
-11 7 0
-5 -18 0
19 6 0
-16 -1 0
11 -3 0
-9 -8 0
-8 -20 0
5 3 0
12 -3 0
-11 -15 0
-3 -15 0
5 12 0
8 9 0
6 -5 0
12 -4 0
15 5 0
11 -2 0
-9 -13 0
-10 12 0
-8 -5 0
-19 -20 0
-17 -20 0
6 -14 0
10 5 0
-8 18 0
-10 -2 0
-11 -2 0
-4 -15 0
10 -3 0
