c PROBLEM_020_070_04  vars=20  clausulas=70  k=2
p cnf 20 70
-1 -19 0
-19 13 0
4 -1 0
17 -7 0
6 4 0
13 17 0
-18 15 0
-19 1 0
-4 -12 0
11 3 0
-16 8 0
-18 -19 0
19 14 0
-18 -2 0
-15 9 0
-11 12 0
-5 13 0
9 20 0
19 2 0
-16 -8 0
-8 -14 0
-3 18 0
-19 1 0
7 -3 0
16 6 0
-5 20 0
-14 7 0
20 11 0
15 12 0
-5 -16 0
13 -19 0
-14 -16 0
-7 12 0
-10 20 0
19 8 0
-15 -4 0
11 20 0
10 19 0
-6 13 0
19 -12 0
15 -5 0
9 14 0
6 18 0
16 10 0
18 -9 0
-4 14 0
-13 16 0
17 1 0
-11 20 0
13 -9 0
-9 -3 0
-10 -7 0
12 2 0
-7 18 0
-14 11 0
-18 -1 0
-5 11 0
17 3 0
3 -15 0
-16 11 0
15 10 0
18 -2 0
10 -19 0
-8 9 0
-3 17 0
-2 -3 0
-1 18 0
-20 -14 0
-2 -5 0
-19 -5 0
