c PROBLEM_080_100_12  vars=80  clausulas=100  k=2
p cnf 80 100
-4 59 0
-27 17 0
68 -19 0
-77 -6 0
1 26 0
50 34 0
34 -38 0
71 50 0
-46 37 0
55 10 0
33 -80 0
-67 -68 0
56 -1 0
-13 43 0
-26 -77 0
-66 40 0
-21 61 0
72 -73 0
-30 56 0
-16 -50 0
23 -76 0
-18 12 0
-2 -78 0
76 30 0
68 -24 0
62 48 0
35 -14 0
-36 54 0
32 69 0
52 -67 0
13 -45 0
-57 75 0
23 65 0
-80 56 0
8 64 0
-35 -1 0
60 -80 0
38 37 0
48 73 0
12 73 0
-77 16 0
14 -22 0
-27 -19 0
25 -24 0
61 53 0
75 -56 0
-55 -42 0
14 68 0
29 -31 0
68 -74 0
60 24 0
-54 80 0
-26 -23 0
-11 -60 0
-44 -77 0
10 -3 0
-44 22 0
-76 -41 0
70 -44 0
-52 22 0
36 -63 0
-19 58 0
69 37 0
-18 5 0
-49 -6 0
-35 -14 0
78 9 0
7 -33 0
28 1 0
-43 -19 0
-69 74 0
70 -62 0
46 -63 0
-26 -63 0
-37 65 0
15 64 0
28 26 0
-71 22 0
-64 65 0
-52 43 0
41 -72 0
44 -40 0
24 51 0
74 -27 0
-17 15 0
9 35 0
-12 69 0
-10 -60 0
43 -48 0
-14 -31 0
75 69 0
-20 -27 0
14 -62 0
-61 -10 0
51 3 0
-39 40 0
-56 -2 0
76 -5 0
-47 79 0
2 -51 0
