c PROBLEM_080_100_47  vars=80  clausulas=100  k=2
p cnf 80 100
66 29 0
21 17 0
-6 8 0
-59 40 0
62 33 0
-73 9 0
-49 15 0
25 4 0
-5 -51 0
-50 -44 0
62 9 0
-72 46 0
-41 -5 0
-76 -11 0
-35 -22 0
-34 -2 0
-71 58 0
17 -24 0
23 -66 0
55 38 0
80 31 0
-65 11 0
73 -8 0
-41 27 0
-61 31 0
11 -61 0
-23 63 0
-19 -55 0
28 80 0
49 30 0
31 -35 0
-42 36 0
-68 -39 0
-70 -21 0
31 18 0
-46 16 0
-48 -6 0
-60 57 0
-22 40 0
-77 -38 0
-10 64 0
-64 -3 0
56 69 0
-72 -19 0
-42 12 0
-45 -37 0
-13 24 0
-2 -43 0
-7 -26 0
-67 -57 0
47 12 0
53 -74 0
-5 80 0
69 39 0
5 -51 0
70 28 0
68 21 0
41 50 0
30 70 0
74 -20 0
30 -69 0
78 79 0
39 -72 0
58 -16 0
-8 -13 0
-75 -10 0
2 -67 0
-10 1 0
72 75 0
-25 -30 0
-40 77 0
-54 -45 0
-80 -32 0
41 47 0
73 -33 0
-45 3 0
-79 -25 0
60 59 0
23 -54 0
-34 74 0
3 -12 0
-4 -58 0
-48 74 0
-33 -80 0
-76 -58 0
66 51 0
76 -37 0
-37 18 0
-54 -14 0
46 19 0
-39 -54 0
-42 48 0
-71 -37 0
76 62 0
-52 24 0
62 30 0
-45 -43 0
-53 -32 0
-46 18 0
-36 -18 0
