c PROBLEM_080_100_50  vars=80  clausulas=100  k=2
p cnf 80 100
45 -62 0
-66 -11 0
10 -27 0
28 71 0
-47 -36 0
46 43 0
7 21 0
-13 73 0
61 -56 0
-60 -2 0
52 -16 0
49 -42 0
52 4 0
70 -22 0
12 53 0
-65 21 0
-48 43 0
67 72 0
34 45 0
77 21 0
8 -9 0
29 -35 0
67 -56 0
42 59 0
72 -79 0
36 -45 0
-2 3 0
35 46 0
-71 35 0
-27 72 0
-6 4 0
51 2 0
58 33 0
-14 73 0
-40 42 0
-76 50 0
34 38 0
67 -13 0
50 49 0
-44 -45 0
73 76 0
33 37 0
25 -24 0
49 10 0
-65 55 0
-61 8 0
-30 -74 0
9 15 0
-36 -78 0
-47 5 0
10 56 0
17 58 0
-25 67 0
56 47 0
30 58 0
-17 21 0
44 -55 0
75 46 0
-57 -47 0
41 -79 0
71 40 0
67 -76 0
-61 -28 0
-52 -62 0
-16 27 0
29 20 0
-62 57 0
-36 26 0
69 37 0
-56 9 0
2 -17 0
41 -37 0
11 20 0
43 51 0
66 33 0
-45 18 0
41 -2 0
-16 -55 0
30 23 0
-23 79 0
63 65 0
62 49 0
6 -67 0
47 -18 0
68 -1 0
4 23 0
-19 -55 0
32 3 0
51 43 0
-12 -16 0
-54 44 0
-48 -65 0
66 -77 0
56 38 0
12 -7 0
64 -31 0
10 -80 0
6 24 0
-52 13 0
-39 33 0
