c PROBLEM_080_100_10  vars=80  clausulas=100  k=2
p cnf 80 100
24 53 0
30 69 0
-65 -1 0
-54 -26 0
42 -27 0
-59 -60 0
71 64 0
74 -56 0
73 -19 0
65 79 0
7 -36 0
-11 38 0
22 77 0
29 61 0
-59 31 0
13 -32 0
25 32 0
-1 -52 0
68 17 0
-38 52 0
78 -60 0
38 -14 0
76 -71 0
-35 28 0
25 -68 0
38 -44 0
-54 6 0
17 77 0
35 -13 0
-56 -61 0
-44 -17 0
18 -1 0
-35 -66 0
-73 33 0
22 54 0
-49 16 0
54 -6 0
65 11 0
67 3 0
-16 63 0
55 -78 0
41 -46 0
-5 -16 0
-35 -57 0
-74 76 0
73 33 0
45 68 0
68 24 0
37 -46 0
-32 -56 0
-13 51 0
-26 -27 0
75 58 0
-50 -24 0
-20 45 0
-71 54 0
-5 -30 0
4 -29 0
31 35 0
77 -2 0
57 41 0
79 25 0
-28 71 0
-47 52 0
-77 -49 0
-72 -79 0
30 -66 0
-77 -48 0
43 15 0
-34 65 0
61 33 0
-70 -77 0
51 -35 0
-23 -6 0
72 -54 0
-55 -60 0
-62 -72 0
30 -73 0
61 -8 0
37 33 0
25 41 0
-8 -9 0
71 -75 0
45 12 0
39 23 0
25 63 0
-36 7 0
-42 -8 0
-49 11 0
-17 -66 0
-19 2 0
25 -78 0
-49 -66 0
-56 -24 0
-21 80 0
-48 40 0
-74 76 0
53 74 0
18 -19 0
-10 75 0
