c PROBLEM_080_100_33  vars=80  clausulas=100  k=2
p cnf 80 100
57 62 0
-44 -39 0
8 76 0
-42 -13 0
7 61 0
34 -48 0
-78 48 0
46 68 0
-35 48 0
-59 -1 0
62 -14 0
1 52 0
71 -7 0
-18 -36 0
20 6 0
-64 16 0
68 -49 0
25 -53 0
-36 -49 0
69 46 0
17 27 0
-31 -60 0
-63 -3 0
75 -57 0
-30 -11 0
22 37 0
5 19 0
-8 -79 0
-24 -40 0
73 -1 0
-8 50 0
-11 -64 0
75 57 0
43 10 0
32 -12 0
14 -49 0
77 19 0
-38 78 0
23 -10 0
54 70 0
-51 22 0
29 72 0
58 61 0
-40 -4 0
45 43 0
-73 66 0
-45 -65 0
-37 15 0
-58 52 0
-23 31 0
-19 -53 0
57 67 0
-2 63 0
-5 47 0
-20 76 0
80 12 0
65 -35 0
31 52 0
-22 8 0
56 -16 0
15 -24 0
20 1 0
-61 -80 0
-53 -74 0
66 74 0
-38 -30 0
-65 59 0
8 65 0
35 21 0
-18 -67 0
-42 6 0
19 -40 0
14 -55 0
23 43 0
11 -21 0
66 -50 0
9 12 0
70 -26 0
61 62 0
28 -61 0
-20 3 0
35 51 0
-28 74 0
-28 -26 0
34 53 0
-71 -51 0
58 42 0
-78 69 0
-36 -52 0
-8 -5 0
11 74 0
-33 75 0
67 -5 0
-9 -72 0
-41 -13 0
-9 -54 0
-70 29 0
-24 -72 0
-31 -30 0
19 41 0
