c PROBLEM_080_100_20  vars=80  clausulas=100  k=2
p cnf 80 100
-23 -33 0
-36 -74 0
-41 -25 0
17 -21 0
65 -26 0
-49 -7 0
-80 -78 0
63 -53 0
36 27 0
-33 64 0
-33 55 0
34 10 0
31 -21 0
52 -47 0
-44 -42 0
30 -22 0
21 -65 0
-5 54 0
-52 42 0
76 -68 0
-59 -66 0
4 16 0
8 57 0
-44 72 0
56 50 0
-18 -41 0
-24 -53 0
46 12 0
-8 30 0
1 31 0
-63 34 0
-79 -25 0
52 -28 0
1 -51 0
41 2 0
19 -42 0
18 71 0
50 -39 0
-59 -12 0
30 68 0
-54 -61 0
35 -74 0
-10 -54 0
62 -46 0
-69 13 0
-21 79 0
42 -46 0
28 -61 0
60 72 0
-32 -20 0
-19 57 0
-56 -73 0
-62 18 0
69 -33 0
16 75 0
56 -62 0
29 22 0
-17 70 0
-43 46 0
-45 48 0
-29 -80 0
-35 -42 0
23 -70 0
-71 80 0
-67 38 0
64 40 0
-45 27 0
71 -67 0
-11 77 0
56 -20 0
10 51 0
-58 19 0
45 74 0
-45 -9 0
79 -19 0
6 1 0
73 -38 0
5 -56 0
44 39 0
-37 -71 0
-27 -49 0
15 37 0
25 -51 0
-13 -10 0
-6 15 0
37 19 0
-55 40 0
76 -21 0
43 1 0
47 48 0
-60 -3 0
-27 -48 0
64 -22 0
-21 26 0
9 -71 0
27 24 0
-40 76 0
68 -50 0
-54 32 0
-14 -36 0
