c PROBLEM_080_100_23  vars=80  clausulas=100  k=2
p cnf 80 100
-35 -75 0
-27 68 0
-50 -62 0
12 59 0
1 9 0
28 15 0
64 -7 0
-54 -67 0
22 60 0
-50 -60 0
-15 19 0
48 75 0
-56 41 0
13 65 0
-63 -31 0
-70 58 0
30 -29 0
75 50 0
-49 22 0
31 20 0
3 -17 0
-39 -38 0
27 49 0
-44 57 0
-72 -41 0
-42 -56 0
-10 -58 0
-45 -34 0
-11 -72 0
-64 49 0
4 -55 0
-50 -58 0
-50 32 0
-1 -64 0
-15 74 0
-36 22 0
65 62 0
-9 10 0
-27 -17 0
-61 58 0
-39 38 0
5 -19 0
75 34 0
16 20 0
-29 62 0
-58 23 0
6 -57 0
5 76 0
-24 -5 0
-30 -71 0
-65 14 0
-14 -3 0
-65 32 0
63 -51 0
-46 -50 0
58 68 0
56 45 0
20 -16 0
77 -39 0
12 -73 0
-17 -63 0
-65 -33 0
69 50 0
-12 -69 0
-76 59 0
25 51 0
-47 -3 0
-6 40 0
-32 1 0
18 66 0
-11 -3 0
8 48 0
-67 -31 0
-54 55 0
-53 62 0
-2 -76 0
-79 -80 0
12 70 0
8 57 0
-74 39 0
33 26 0
53 -21 0
-49 -57 0
18 78 0
-52 55 0
-59 -34 0
37 -5 0
-54 30 0
44 22 0
-48 12 0
-43 8 0
21 -26 0
-78 -22 0
69 39 0
-55 64 0
59 45 0
68 38 0
46 2 0
15 -59 0
-35 -37 0
