c PROBLEM_080_100_06  vars=80  clausulas=100  k=2
p cnf 80 100
4 51 0
22 52 0
-21 -11 0
65 32 0
-66 38 0
11 -23 0
-60 78 0
48 24 0
-68 -51 0
56 -29 0
-16 -29 0
65 -37 0
20 50 0
32 77 0
-46 5 0
73 72 0
-29 -69 0
29 -18 0
-64 -40 0
-28 -37 0
-1 53 0
43 -65 0
-51 31 0
-36 -5 0
63 53 0
69 10 0
15 77 0
33 -12 0
49 -20 0
74 -34 0
-26 -61 0
29 56 0
-10 79 0
-71 -42 0
55 -57 0
55 -21 0
-33 -42 0
-57 -44 0
50 41 0
-25 58 0
-59 -48 0
4 45 0
-27 18 0
-25 70 0
59 -78 0
68 62 0
-31 14 0
2 -17 0
68 -24 0
-41 -2 0
-38 -79 0
9 -52 0
-51 -5 0
66 42 0
47 15 0
-3 -39 0
62 -57 0
18 -40 0
27 15 0
31 77 0
39 -45 0
-7 -3 0
63 14 0
9 67 0
-80 76 0
68 59 0
-80 49 0
63 24 0
13 6 0
-5 -32 0
-46 71 0
55 52 0
19 -68 0
-60 -16 0
-49 77 0
-6 20 0
-2 28 0
-64 -43 0
-51 67 0
23 -38 0
-8 -75 0
-48 -5 0
36 14 0
7 -39 0
65 -41 0
4 -62 0
18 63 0
-36 10 0
72 22 0
-12 -22 0
-75 54 0
3 33 0
55 44 0
-71 -79 0
-44 -55 0
43 -35 0
30 -69 0
20 22 0
16 67 0
27 42 0
