c PROBLEM_080_100_16  vars=80  clausulas=100  k=2
p cnf 80 100
-57 60 0
58 26 0
-59 -30 0
2 -33 0
37 -62 0
12 2 0
-32 -71 0
10 -56 0
-50 -4 0
45 -39 0
3 32 0
75 25 0
66 14 0
-36 -61 0
-42 11 0
6 57 0
5 -43 0
-48 33 0
-61 -9 0
-11 -35 0
-73 -77 0
25 -13 0
16 63 0
-1 -18 0
-51 1 0
-14 77 0
28 -76 0
11 -30 0
-60 -1 0
-11 35 0
-14 78 0
19 66 0
16 -26 0
54 22 0
-45 27 0
-56 -9 0
29 48 0
-15 -69 0
38 23 0
-34 75 0
-54 52 0
30 12 0
-48 -49 0
-73 -59 0
55 -8 0
9 -21 0
-66 -13 0
-58 57 0
-45 39 0
-26 71 0
35 8 0
17 49 0
-32 -63 0
28 11 0
-40 -2 0
2 -15 0
-62 64 0
78 54 0
-67 73 0
18 -80 0
51 2 0
-68 -40 0
-24 -8 0
-69 -32 0
45 -36 0
57 -46 0
78 12 0
52 -27 0
-62 -41 0
-78 68 0
54 -44 0
52 76 0
-19 -24 0
32 58 0
-58 -30 0
-79 -69 0
-8 -65 0
-78 13 0
-17 -55 0
39 23 0
6 -42 0
68 2 0
57 6 0
60 -31 0
-70 62 0
50 -7 0
46 25 0
72 -59 0
-47 74 0
54 16 0
20 -50 0
-3 59 0
-33 -34 0
-64 62 0
-66 -21 0
-80 53 0
-62 -67 0
-7 42 0
51 -6 0
-22 45 0
