c PROBLEM_080_100_18  vars=80  clausulas=100  k=2
p cnf 80 100
72 -69 0
-9 29 0
62 51 0
-33 61 0
-58 24 0
79 -22 0
13 56 0
11 -16 0
-29 4 0
-62 1 0
-68 -35 0
-66 23 0
-3 6 0
22 -19 0
-25 -38 0
-80 74 0
-67 64 0
3 -41 0
60 -69 0
-55 -14 0
-44 -8 0
-28 -54 0
-21 53 0
76 23 0
-56 -12 0
-27 28 0
14 34 0
-71 -25 0
-20 -24 0
5 27 0
-47 -52 0
65 45 0
-61 -59 0
-50 -26 0
22 34 0
-19 41 0
-2 -46 0
-30 40 0
-22 12 0
25 -63 0
11 70 0
-7 -37 0
-37 41 0
80 -33 0
-25 -40 0
-47 28 0
11 -7 0
28 57 0
-75 63 0
-56 -52 0
70 -58 0
37 -2 0
2 -42 0
-40 9 0
72 -43 0
7 4 0
-47 -22 0
-72 -23 0
-4 72 0
71 -66 0
32 -1 0
-68 80 0
5 36 0
-67 74 0
43 73 0
-17 -40 0
79 -18 0
44 15 0
-21 3 0
-3 -59 0
25 -56 0
-24 67 0
-65 -32 0
48 19 0
78 -9 0
15 -46 0
-52 -19 0
73 -13 0
27 5 0
76 12 0
49 6 0
-15 25 0
27 60 0
-24 5 0
26 -31 0
-41 39 0
-64 33 0
-4 66 0
10 -1 0
34 -73 0
-29 -10 0
-14 -54 0
-29 62 0
-17 6 0
48 75 0
77 67 0
-46 5 0
-78 6 0
54 -6 0
-11 -34 0
