c PROBLEM_080_100_31  vars=80  clausulas=100  k=2
p cnf 80 100
32 64 0
-25 -71 0
9 63 0
-22 -59 0
-63 38 0
73 -66 0
53 -43 0
-38 -57 0
-41 -15 0
76 45 0
-46 1 0
-12 -18 0
32 61 0
29 -50 0
-80 43 0
24 6 0
-21 -3 0
46 75 0
13 71 0
33 31 0
70 57 0
-34 52 0
18 -48 0
51 64 0
-44 -20 0
-49 9 0
58 -6 0
-14 59 0
-36 -41 0
10 43 0
-49 60 0
-17 41 0
-35 38 0
-40 9 0
-36 32 0
-12 -59 0
-4 14 0
11 20 0
55 -28 0
-16 -21 0
-64 76 0
3 39 0
-32 27 0
-34 -62 0
-62 57 0
-44 -1 0
13 -24 0
3 -33 0
-30 8 0
-68 -54 0
66 18 0
-65 51 0
-63 59 0
17 51 0
-33 -13 0
4 -47 0
-55 23 0
32 -7 0
20 63 0
78 16 0
-40 -75 0
2 -58 0
79 20 0
-71 80 0
36 58 0
63 72 0
64 -26 0
78 -23 0
-16 74 0
63 -42 0
36 -47 0
79 50 0
48 21 0
65 -23 0
-19 1 0
-5 -64 0
-17 53 0
3 -64 0
25 -43 0
74 60 0
-72 -45 0
59 -57 0
63 43 0
78 61 0
35 -8 0
-72 8 0
75 -38 0
-77 55 0
-60 -33 0
75 -37 0
-49 -36 0
-8 47 0
-20 10 0
18 25 0
-14 80 0
69 -38 0
-56 71 0
41 56 0
65 -67 0
-28 -20 0
