c PROBLEM_080_100_04  vars=80  clausulas=100  k=2
p cnf 80 100
24 -19 0
60 19 0
-21 -62 0
20 39 0
-5 49 0
57 62 0
8 20 0
33 -43 0
8 6 0
-15 -62 0
79 51 0
33 57 0
-12 79 0
51 80 0
-53 -71 0
-37 -30 0
-37 10 0
25 14 0
60 22 0
14 31 0
-20 47 0
51 -3 0
50 -36 0
61 -53 0
17 -30 0
-5 17 0
58 77 0
43 -68 0
80 -17 0
-21 -69 0
-3 -79 0
4 3 0
45 23 0
67 54 0
-9 56 0
-76 -31 0
79 24 0
-68 -64 0
-22 20 0
13 76 0
49 27 0
-42 -43 0
11 -41 0
-44 -52 0
58 -73 0
-33 63 0
73 39 0
66 55 0
-46 38 0
-29 57 0
26 -61 0
-55 77 0
19 13 0
6 59 0
13 16 0
1 -15 0
74 35 0
-41 19 0
33 -34 0
-29 -18 0
-35 70 0
-10 -32 0
72 -68 0
11 13 0
-55 58 0
22 -24 0
-2 15 0
9 6 0
63 66 0
69 -22 0
44 -30 0
23 72 0
25 -48 0
56 49 0
76 16 0
62 18 0
76 15 0
39 9 0
28 7 0
-40 -42 0
-44 -48 0
60 -78 0
-52 4 0
-55 49 0
73 39 0
32 -34 0
47 77 0
-5 -36 0
73 -57 0
-76 -44 0
33 19 0
77 80 0
72 -4 0
65 61 0
-5 25 0
-78 -12 0
45 40 0
-75 45 0
42 -10 0
50 -24 0
