c PROBLEM_080_100_32  vars=80  clausulas=100  k=2
p cnf 80 100
-7 54 0
-61 43 0
-30 77 0
-56 19 0
11 -38 0
-15 48 0
-28 -32 0
-4 66 0
-31 77 0
4 -21 0
57 2 0
5 15 0
24 31 0
-72 -12 0
17 27 0
-35 -64 0
-44 -12 0
-28 62 0
-1 -50 0
54 -34 0
31 44 0
-49 32 0
-39 75 0
39 -7 0
-38 -39 0
-24 -80 0
-64 -39 0
63 20 0
65 16 0
-21 45 0
-28 -13 0
55 65 0
46 -50 0
-42 53 0
49 22 0
9 2 0
-20 74 0
42 45 0
36 56 0
52 48 0
-29 3 0
54 9 0
18 -73 0
-10 -8 0
-52 -71 0
30 -18 0
3 -62 0
-21 -70 0
26 16 0
64 -47 0
-18 -55 0
4 67 0
41 20 0
65 64 0
-15 -67 0
-22 -80 0
78 -37 0
-18 -75 0
-55 -77 0
-10 27 0
28 69 0
-25 -35 0
2 75 0
27 47 0
23 -3 0
64 26 0
-16 -33 0
-43 -31 0
-65 -34 0
-17 -9 0
12 -63 0
54 46 0
-15 -27 0
-13 -11 0
72 11 0
74 79 0
-38 -41 0
68 3 0
49 -80 0
13 -51 0
-70 69 0
3 -61 0
71 6 0
76 40 0
-23 -67 0
-19 -42 0
-26 -35 0
45 74 0
-25 -42 0
-58 67 0
75 55 0
59 4 0
47 9 0
68 69 0
-14 -8 0
8 70 0
-7 13 0
56 -60 0
40 -14 0
74 62 0
