c PROBLEM_080_100_48  vars=80  clausulas=100  k=2
p cnf 80 100
-64 -31 0
21 -78 0
54 61 0
8 -47 0
9 51 0
10 -64 0
76 12 0
58 -80 0
13 67 0
49 21 0
-15 -42 0
-39 -66 0
79 51 0
-8 -25 0
-58 -60 0
-53 -28 0
13 -28 0
11 20 0
41 26 0
-59 45 0
51 31 0
-9 -75 0
-4 -2 0
-13 51 0
72 -14 0
-71 -16 0
56 63 0
46 -48 0
-80 -60 0
-10 -11 0
-46 63 0
43 -72 0
17 6 0
-28 74 0
4 -44 0
74 -57 0
37 -68 0
-17 61 0
12 18 0
59 31 0
72 39 0
-51 -35 0
79 69 0
36 -72 0
61 37 0
45 64 0
-21 -53 0
-78 -57 0
-23 -5 0
74 77 0
-70 -33 0
-1 40 0
33 69 0
22 -7 0
-32 -7 0
-59 -16 0
-3 24 0
8 73 0
-45 68 0
-50 43 0
22 52 0
3 -15 0
-14 8 0
14 -74 0
-32 78 0
35 -38 0
61 -69 0
75 -9 0
-42 -62 0
-69 33 0
21 65 0
40 49 0
-2 -14 0
38 42 0
55 -36 0
9 -37 0
-48 -71 0
-63 -57 0
14 11 0
-30 -10 0
74 -29 0
9 -36 0
44 72 0
4 13 0
-64 -6 0
-61 -79 0
78 -15 0
-27 -56 0
67 -14 0
-35 -24 0
20 -75 0
-18 6 0
-70 17 0
77 52 0
22 -48 0
42 18 0
53 -11 0
-5 72 0
19 80 0
34 44 0
