c PROBLEM_080_100_07  vars=80  clausulas=100  k=2
p cnf 80 100
-20 45 0
-15 -40 0
65 14 0
79 -16 0
11 3 0
-8 -15 0
8 10 0
34 -49 0
-47 49 0
63 -78 0
36 -15 0
20 -17 0
74 38 0
5 -33 0
-44 35 0
-18 -36 0
-27 -43 0
12 43 0
51 -4 0
44 -29 0
-31 -13 0
-52 80 0
-56 -45 0
5 54 0
67 60 0
23 8 0
59 2 0
64 42 0
-66 23 0
18 78 0
59 32 0
-26 -46 0
80 67 0
-24 -1 0
-20 -3 0
-38 -20 0
71 -48 0
-48 71 0
-22 -9 0
-74 -12 0
-26 63 0
-58 7 0
-20 28 0
64 61 0
18 47 0
5 -16 0
42 39 0
57 -37 0
-39 -73 0
19 6 0
39 -73 0
30 -29 0
25 -79 0
-39 -79 0
-56 -45 0
-24 1 0
-76 19 0
-1 -75 0
-74 77 0
-29 -69 0
-28 13 0
-25 79 0
-50 53 0
61 -54 0
48 -32 0
33 -18 0
-17 -78 0
80 -64 0
71 -68 0
46 18 0
43 -31 0
45 6 0
-36 -76 0
58 49 0
3 -41 0
12 -24 0
12 24 0
-25 52 0
40 32 0
55 -23 0
-50 -41 0
53 -19 0
1 31 0
-68 53 0
24 72 0
35 -40 0
-42 -10 0
41 -16 0
46 21 0
-15 40 0
70 -19 0
65 -30 0
36 -27 0
-9 36 0
-12 -59 0
-60 22 0
-77 34 0
79 15 0
-52 50 0
-21 62 0
