c PROBLEM_080_100_30  vars=80  clausulas=100  k=2
p cnf 80 100
12 68 0
52 -36 0
-42 24 0
64 54 0
72 79 0
-24 -7 0
-2 55 0
-73 -10 0
70 59 0
21 12 0
73 59 0
39 -23 0
-63 -69 0
3 80 0
49 29 0
64 -54 0
29 -75 0
-45 10 0
-1 -74 0
-64 27 0
-8 11 0
-8 57 0
72 -45 0
70 49 0
33 -27 0
40 53 0
-52 74 0
29 28 0
-16 -32 0
44 -2 0
52 -38 0
-39 30 0
-26 14 0
46 -60 0
32 42 0
-54 32 0
-42 43 0
-10 9 0
79 -70 0
40 -6 0
50 -48 0
70 72 0
9 -19 0
17 -22 0
76 65 0
76 -38 0
53 -45 0
-14 55 0
8 78 0
-77 6 0
-31 32 0
26 63 0
52 -71 0
51 53 0
-37 20 0
-65 -29 0
-16 -23 0
21 -40 0
34 45 0
46 74 0
-43 -77 0
31 -13 0
6 -66 0
-27 41 0
-53 61 0
8 -40 0
22 -55 0
42 21 0
20 78 0
-5 33 0
63 -68 0
51 17 0
-40 -47 0
65 18 0
-64 56 0
38 65 0
22 54 0
-4 62 0
-79 -63 0
69 -58 0
59 41 0
32 25 0
62 75 0
71 -53 0
-56 78 0
40 59 0
7 -28 0
67 59 0
76 68 0
-55 -74 0
23 15 0
-27 67 0
-60 17 0
-9 61 0
35 -38 0
9 -70 0
-55 11 0
20 24 0
-38 3 0
-33 1 0
