c PROBLEM_080_100_38  vars=80  clausulas=100  k=2
p cnf 80 100
69 -39 0
-67 -64 0
44 -51 0
-65 18 0
-24 23 0
-17 -14 0
-16 -4 0
-30 -19 0
16 -1 0
-44 62 0
-38 66 0
-9 41 0
16 9 0
46 -33 0
-62 -22 0
71 -7 0
9 -55 0
63 -4 0
-44 4 0
-71 17 0
47 68 0
-20 54 0
2 29 0
33 39 0
-37 -38 0
-55 -38 0
-10 53 0
46 -18 0
52 -35 0
-78 63 0
-33 54 0
1 -18 0
73 -42 0
-54 44 0
58 7 0
54 -15 0
-13 26 0
28 78 0
74 42 0
-69 -31 0
58 -28 0
-21 37 0
62 5 0
-10 70 0
67 63 0
80 27 0
17 43 0
59 -30 0
48 -15 0
-47 -55 0
-67 -75 0
47 -61 0
-30 7 0
-57 -58 0
-78 45 0
-20 -73 0
-36 3 0
-69 45 0
32 -8 0
-60 46 0
24 -28 0
14 -80 0
-49 6 0
72 -24 0
-56 -19 0
79 5 0
-25 -52 0
-15 -65 0
55 -63 0
-73 -40 0
18 -19 0
-76 24 0
44 -63 0
-70 -39 0
26 20 0
-63 34 0
-34 78 0
-71 2 0
-38 -35 0
-24 -11 0
5 35 0
15 -40 0
79 -21 0
-32 -60 0
16 -22 0
-50 -42 0
-15 -71 0
7 -48 0
34 11 0
-52 27 0
53 -77 0
-12 40 0
-50 -34 0
-71 3 0
65 53 0
-6 20 0
68 45 0
41 -20 0
-46 -63 0
-46 -37 0
