c PROBLEM_080_100_34  vars=80  clausulas=100  k=2
p cnf 80 100
7 -11 0
77 -67 0
-8 -52 0
-56 -79 0
70 51 0
-69 -25 0
78 -50 0
-68 -47 0
61 -7 0
-21 73 0
62 37 0
-34 -2 0
-11 -13 0
-16 70 0
-29 7 0
-75 -30 0
51 13 0
44 -35 0
37 24 0
-19 -24 0
4 65 0
-26 -41 0
-72 -18 0
51 -25 0
-62 -11 0
42 17 0
-34 13 0
78 -55 0
8 7 0
29 -61 0
56 -61 0
-60 -64 0
-71 6 0
-53 25 0
-65 50 0
-63 -6 0
-12 -33 0
-74 -80 0
-72 79 0
-10 -11 0
-74 21 0
64 78 0
39 -65 0
76 64 0
34 -54 0
-21 -61 0
-30 -32 0
-78 16 0
-46 78 0
70 -73 0
-39 78 0
32 47 0
25 -29 0
25 14 0
-74 -78 0
17 -60 0
22 -11 0
27 -22 0
-36 -47 0
-26 22 0
1 57 0
21 -45 0
-58 72 0
-39 48 0
80 -49 0
-66 54 0
38 59 0
18 31 0
75 -48 0
5 -16 0
-16 6 0
42 15 0
-50 -76 0
-29 61 0
-40 20 0
23 -79 0
28 62 0
-56 2 0
11 12 0
78 -64 0
-9 -5 0
66 71 0
47 61 0
38 14 0
-65 26 0
29 -66 0
-30 -43 0
38 80 0
28 -15 0
69 -8 0
50 20 0
-51 80 0
63 -3 0
-7 -35 0
6 -9 0
-31 15 0
-41 -64 0
-27 4 0
-80 68 0
25 12 0
