c PROBLEM_020_100_08  vars=20  clausulas=100  k=2
p cnf 20 100
7 10 0
-13 -11 0
1 18 0
3 17 0
2 10 0
-13 -19 0
-11 13 0
19 -14 0
1 16 0
20 -7 0
2 9 0
-18 -20 0
5 -4 0
-20 -18 0
-20 9 0
-2 10 0
1 4 0
13 6 0
-11 7 0
-9 -19 0
7 -4 0
-10 7 0
17 -20 0
14 8 0
8 5 0
7 13 0
16 4 0
7 -17 0
-1 8 0
19 -3 0
-11 6 0
18 -8 0
-18 8 0
1 18 0
15 18 0
4 9 0
11 13 0
8 6 0
-9 12 0
-19 -18 0
-7 12 0
2 -9 0
-8 -6 0
15 -5 0
-19 5 0
10 -4 0
5 -12 0
-15 -14 0
-15 -9 0
5 -7 0
3 6 0
17 14 0
-12 6 0
20 2 0
4 3 0
-5 -2 0
-20 -3 0
13 -6 0
-10 4 0
13 18 0
8 -5 0
14 -18 0
-8 20 0
4 9 0
14 1 0
4 -13 0
10 -12 0
-2 4 0
-3 2 0
18 1 0
9 -3 0
-18 -11 0
-17 14 0
-17 4 0
-1 18 0
17 -6 0
11 20 0
3 12 0
3 -11 0
-16 -4 0
-6 10 0
-13 5 0
-4 -5 0
-14 -13 0
19 2 0
-18 9 0
11 18 0
-16 -9 0
9 16 0
-11 -13 0
17 -18 0
-8 10 0
15 -11 0
12 8 0
-2 11 0
-18 -19 0
-19 17 0
-20 14 0
1 18 0
-4 14 0
