c PROBLEM_020_100_35  vars=20  clausulas=100  k=2
p cnf 20 100
14 4 0
9 11 0
-19 -1 0
10 1 0
17 -19 0
-8 -1 0
1 11 0
-19 -3 0
-11 -2 0
-16 18 0
2 -13 0
2 8 0
-1 -8 0
-3 15 0
1 3 0
20 -8 0
8 7 0
13 -7 0
-9 16 0
17 -15 0
-20 10 0
-9 -15 0
-7 4 0
10 -4 0
14 1 0
-4 -2 0
-2 3 0
-6 15 0
10 20 0
-4 18 0
19 13 0
16 -15 0
1 -12 0
15 -2 0
7 -15 0
-10 6 0
-9 -19 0
-6 19 0
-7 15 0
20 -12 0
20 -6 0
17 -1 0
9 7 0
-2 -9 0
-19 5 0
7 -1 0
15 -13 0
1 16 0
-11 -8 0
4 1 0
1 8 0
-2 -10 0
-12 -2 0
-17 -3 0
-11 -19 0
-3 -16 0
14 -1 0
-9 5 0
14 -15 0
1 2 0
18 -3 0
-18 13 0
4 -6 0
-1 5 0
-10 13 0
8 9 0
1 8 0
-7 -16 0
-1 10 0
14 9 0
-9 -4 0
-10 -18 0
19 10 0
3 -15 0
-13 -20 0
-19 18 0
7 -11 0
13 12 0
9 -18 0
20 16 0
16 4 0
-3 9 0
5 2 0
17 -3 0
15 12 0
12 4 0
10 6 0
9 -8 0
-2 10 0
-7 18 0
-18 -4 0
3 14 0
9 -7 0
-1 -4 0
-10 9 0
-1 11 0
5 12 0
-2 16 0
-3 -5 0
-13 -16 0
