c PROBLEM_020_100_03  vars=20  clausulas=100  k=2
p cnf 20 100
-19 -14 0
-3 4 0
-18 -16 0
-10 -13 0
-11 -5 0
-10 -4 0
-8 16 0
3 -18 0
2 16 0
-20 -2 0
10 5 0
-14 -12 0
-7 20 0
5 7 0
-3 -19 0
9 4 0
9 8 0
14 -15 0
7 -15 0
2 -14 0
9 -3 0
-12 -18 0
2 -11 0
5 -8 0
-13 -1 0
-9 2 0
14 17 0
18 -14 0
-11 2 0
-10 -9 0
-9 4 0
5 15 0
4 -16 0
4 -3 0
-11 -9 0
-4 -14 0
11 2 0
-10 -14 0
11 -7 0
-16 -17 0
-11 -12 0
4 -20 0
7 8 0
-6 -20 0
-3 -8 0
9 1 0
-12 16 0
2 16 0
-17 -4 0
-10 -17 0
15 4 0
5 7 0
-13 -1 0
19 12 0
-4 2 0
-19 -13 0
-12 13 0
-2 9 0
13 4 0
-12 -16 0
-4 18 0
-15 -19 0
18 -19 0
20 -7 0
2 -4 0
2 -8 0
-5 -19 0
1 -2 0
10 3 0
-4 1 0
4 8 0
-5 -10 0
-1 -19 0
13 19 0
-16 18 0
-17 15 0
-6 -13 0
9 3 0
-2 -9 0
10 18 0
-7 -10 0
-12 -11 0
-17 -14 0
-11 17 0
9 -2 0
-5 -15 0
17 14 0
17 -14 0
9 -1 0
-5 -3 0
5 3 0
15 8 0
-11 -18 0
-7 1 0
-9 -13 0
-5 -19 0
-15 4 0
-20 13 0
-4 -3 0
4 -3 0
