c PROBLEM_020_100_16  vars=20  clausulas=100  k=2
p cnf 20 100
-20 -7 0
2 -6 0
18 -10 0
14 -7 0
-4 -12 0
8 7 0
-11 -2 0
-7 -9 0
-19 15 0
-17 12 0
8 -3 0
17 -4 0
15 18 0
-4 10 0
6 3 0
16 -5 0
-3 -19 0
6 -3 0
-14 8 0
11 -2 0
1 -14 0
16 6 0
-15 17 0
-4 -9 0
15 -7 0
11 -14 0
5 -17 0
-9 -10 0
-17 1 0
13 19 0
-10 17 0
6 -14 0
15 -19 0
13 15 0
12 2 0
-15 5 0
-7 -1 0
17 6 0
16 18 0
-5 3 0
6 -18 0
2 -12 0
3 -16 0
-15 -20 0
-18 -12 0
9 16 0
13 -2 0
-20 2 0
7 -14 0
-16 -10 0
-18 -2 0
-18 15 0
1 -3 0
8 -1 0
-18 1 0
-9 8 0
-11 -18 0
-3 -5 0
-5 16 0
-19 -13 0
-20 18 0
2 -7 0
10 -20 0
18 20 0
-11 -17 0
6 14 0
-3 -13 0
-18 -5 0
-16 8 0
-14 -15 0
-14 7 0
11 -8 0
-14 -9 0
8 -18 0
-6 1 0
1 17 0
20 6 0
18 7 0
4 11 0
-2 -5 0
-4 -6 0
20 -11 0
-11 -1 0
-6 -19 0
1 19 0
-15 -6 0
4 18 0
15 9 0
-6 8 0
1 -16 0
-19 11 0
-13 -11 0
20 -7 0
-15 6 0
-17 12 0
-5 6 0
8 9 0
-19 8 0
3 7 0
19 12 0
