c PROBLEM_020_100_39  vars=20  clausulas=100  k=2
p cnf 20 100
-3 -6 0
8 20 0
2 6 0
-3 2 0
14 9 0
-13 20 0
-10 11 0
-8 5 0
17 -5 0
20 -15 0
-16 -19 0
-18 -4 0
12 3 0
-10 -19 0
16 -7 0
-2 16 0
-18 -12 0
-20 3 0
7 5 0
12 9 0
-19 16 0
-5 14 0
-18 -16 0
-1 -5 0
-9 -18 0
10 11 0
8 19 0
-6 5 0
-18 -6 0
18 -1 0
-10 6 0
7 -18 0
-11 12 0
9 16 0
10 19 0
15 4 0
-19 -17 0
-20 -3 0
-11 -2 0
-18 -7 0
19 -18 0
14 -8 0
-17 -3 0
15 -7 0
-10 -13 0
-9 -14 0
4 -13 0
14 -8 0
-18 20 0
19 18 0
-18 -12 0
3 -1 0
20 -11 0
-20 -17 0
10 -5 0
-18 3 0
12 -7 0
2 -18 0
-17 3 0
-19 -18 0
-15 11 0
-10 -5 0
8 1 0
3 2 0
-3 -1 0
-6 -1 0
-11 15 0
-13 11 0
-19 -13 0
-11 -4 0
-19 17 0
9 -14 0
-15 9 0
-3 20 0
-12 -11 0
1 -4 0
10 14 0
2 6 0
8 -11 0
-15 16 0
9 -7 0
5 -2 0
-15 -10 0
2 -20 0
-15 -2 0
15 -3 0
-20 -4 0
-16 13 0
-14 -11 0
-16 14 0
-15 -5 0
-12 -19 0
-4 18 0
6 -11 0
18 15 0
-5 -17 0
-12 13 0
5 -17 0
-7 -19 0
5 14 0
