c PROBLEM_020_100_24  vars=20  clausulas=100  k=2
p cnf 20 100
15 2 0
9 17 0
-6 4 0
2 19 0
2 -18 0
10 -3 0
13 -4 0
-10 2 0
-9 -14 0
-13 19 0
-13 20 0
13 11 0
2 -4 0
-6 12 0
7 15 0
20 -5 0
-5 17 0
19 10 0
19 15 0
-7 -1 0
2 17 0
-14 -3 0
12 19 0
-12 8 0
-8 16 0
7 15 0
-17 16 0
-12 17 0
14 13 0
-19 5 0
6 7 0
-6 -11 0
-13 17 0
10 15 0
-3 -12 0
-8 -12 0
14 -16 0
-10 16 0
4 9 0
2 -14 0
18 1 0
13 -4 0
-17 -13 0
-6 12 0
-14 -11 0
-3 15 0
18 7 0
3 13 0
6 7 0
17 16 0
15 -9 0
8 11 0
13 -16 0
-13 -2 0
3 -4 0
-17 5 0
3 10 0
16 11 0
-8 -11 0
6 1 0
3 -11 0
-11 2 0
9 -13 0
-3 -8 0
1 -10 0
14 -7 0
3 -7 0
-14 -1 0
8 -10 0
-19 -13 0
-1 -8 0
-8 -11 0
13 -15 0
-20 18 0
19 -18 0
-15 -20 0
-17 -11 0
-16 -17 0
4 8 0
-16 -5 0
7 19 0
-8 20 0
17 4 0
-10 17 0
3 -8 0
7 9 0
-17 19 0
-2 -8 0
-5 -10 0
1 11 0
-19 10 0
-11 -8 0
-11 15 0
-20 -9 0
8 14 0
-10 6 0
5 6 0
10 -13 0
-11 -4 0
-2 16 0
