c PROBLEM_020_100_44  vars=20  clausulas=100  k=2
p cnf 20 100
17 -1 0
6 18 0
20 -14 0
-7 2 0
4 18 0
-10 20 0
-4 -13 0
8 -14 0
13 -2 0
-9 -14 0
-8 17 0
8 4 0
-9 -20 0
16 -11 0
-18 12 0
-3 7 0
7 2 0
-18 16 0
13 -10 0
-3 1 0
-13 3 0
-5 -15 0
19 14 0
2 8 0
16 -12 0
13 -1 0
-3 -6 0
7 -17 0
-9 19 0
12 -18 0
11 14 0
-4 -16 0
-18 -20 0
-2 -13 0
-8 2 0
-7 16 0
-11 -15 0
-6 8 0
-6 17 0
2 16 0
12 1 0
14 -6 0
4 -8 0
-1 3 0
17 10 0
12 17 0
6 13 0
-16 -1 0
16 -14 0
-10 -6 0
-17 -20 0
-14 16 0
17 -15 0
2 -19 0
17 -14 0
16 4 0
-7 -19 0
6 -3 0
-4 7 0
-6 19 0
-8 -13 0
12 11 0
15 4 0
15 -11 0
-10 -17 0
-7 20 0
-4 8 0
8 13 0
16 -1 0
10 -19 0
10 7 0
5 19 0
15 -18 0
-4 6 0
-18 -11 0
-13 -3 0
1 -20 0
1 18 0
16 -1 0
5 -12 0
-14 -5 0
1 11 0
18 19 0
-5 9 0
14 11 0
1 -18 0
-14 -1 0
-7 -11 0
2 8 0
3 13 0
15 -19 0
2 -19 0
6 19 0
-1 17 0
20 -16 0
16 14 0
-2 1 0
-4 -19 0
5 -20 0
-8 -15 0
