c PROBLEM_020_100_14  vars=20  clausulas=100  k=2
p cnf 20 100
7 -15 0
20 -6 0
-12 -17 0
-4 18 0
13 10 0
-10 5 0
-15 -6 0
19 -4 0
17 -16 0
-10 18 0
-4 5 0
-18 5 0
14 -15 0
-4 2 0
10 20 0
-8 19 0
3 15 0
-3 17 0
-19 4 0
14 -5 0
11 18 0
2 -9 0
9 20 0
12 -2 0
16 9 0
-12 14 0
-14 -1 0
-15 -5 0
14 7 0
7 8 0
7 16 0
-16 20 0
-4 -20 0
-18 -4 0
-8 10 0
18 16 0
-10 16 0
15 6 0
-16 -3 0
5 2 0
3 -13 0
-2 3 0
13 1 0
-17 -18 0
-1 7 0
-9 17 0
-11 20 0
11 -15 0
-14 -13 0
9 4 0
-6 15 0
-6 15 0
-18 4 0
1 13 0
-15 -11 0
-12 -16 0
-19 -11 0
14 -11 0
8 -18 0
10 -6 0
14 -18 0
10 -19 0
19 -14 0
4 18 0
-4 19 0
4 20 0
12 2 0
-6 -14 0
3 -13 0
-19 -1 0
-18 12 0
19 12 0
-15 -18 0
13 -17 0
-3 6 0
8 20 0
-8 17 0
6 -15 0
-6 2 0
-18 -16 0
-19 -2 0
6 2 0
18 12 0
-9 19 0
-1 3 0
-14 -20 0
-9 2 0
-16 -5 0
-15 -7 0
3 -4 0
-7 -6 0
16 9 0
-16 -2 0
12 16 0
-2 -7 0
-7 3 0
-17 -16 0
-19 -18 0
10 7 0
-18 6 0
