c PROBLEM_020_100_29  vars=20  clausulas=100  k=2
p cnf 20 100
13 -6 0
-15 -4 0
-14 -10 0
-1 -20 0
15 14 0
14 -16 0
-13 -4 0
-9 -3 0
19 8 0
2 -3 0
13 -15 0
-18 16 0
-9 -19 0
12 -10 0
6 -8 0
3 17 0
-3 1 0
11 4 0
-10 3 0
-4 13 0
-12 1 0
19 12 0
-18 11 0
-13 -6 0
13 -11 0
15 19 0
11 -3 0
10 7 0
7 3 0
7 14 0
-2 -20 0
-7 12 0
-1 -14 0
-14 -6 0
18 -14 0
-14 4 0
1 -12 0
-4 -1 0
-10 -6 0
-18 7 0
9 -12 0
12 -6 0
-19 -4 0
-6 -18 0
-10 -4 0
18 -2 0
13 -6 0
11 -8 0
-18 19 0
18 -20 0
17 15 0
-20 -3 0
-18 -8 0
9 -13 0
-3 -8 0
-9 11 0
-11 -15 0
10 9 0
-19 -1 0
-18 -5 0
12 -16 0
4 -12 0
-19 -12 0
8 -5 0
16 -18 0
1 4 0
6 -18 0
-9 -20 0
-15 -19 0
-3 17 0
10 -19 0
-1 -12 0
-17 -16 0
12 2 0
5 3 0
-20 -18 0
-1 17 0
-18 -3 0
-4 11 0
4 -9 0
-8 -4 0
-9 13 0
-7 12 0
17 -3 0
7 -2 0
2 -16 0
-2 -16 0
-3 17 0
6 -4 0
11 -9 0
-18 -5 0
18 -10 0
6 -3 0
-14 -10 0
7 -1 0
-10 -16 0
-16 6 0
5 -4 0
6 -2 0
-16 -15 0
