c PROBLEM_020_100_09  vars=20  clausulas=100  k=2
p cnf 20 100
10 9 0
17 -10 0
19 1 0
2 3 0
12 18 0
17 -10 0
3 20 0
20 -17 0
-11 13 0
19 -10 0
-17 -9 0
2 -15 0
-15 -4 0
19 1 0
-19 -8 0
15 12 0
-2 11 0
-19 -1 0
4 12 0
-6 -19 0
-13 -15 0
8 -7 0
6 -7 0
-8 -18 0
17 8 0
-14 2 0
6 3 0
16 -9 0
11 14 0
-15 19 0
15 -10 0
-7 10 0
17 -1 0
-8 -1 0
-1 -3 0
-5 -13 0
-19 -18 0
12 14 0
16 2 0
3 9 0
5 -1 0
14 9 0
1 -6 0
10 -20 0
20 -9 0
14 5 0
20 14 0
-18 -6 0
-19 10 0
-2 -18 0
7 -16 0
14 9 0
2 6 0
-17 10 0
-16 9 0
-1 4 0
-5 3 0
-6 16 0
6 -13 0
-18 -16 0
7 3 0
-2 -12 0
10 18 0
-16 15 0
11 -6 0
-1 4 0
11 10 0
7 -4 0
9 -2 0
7 6 0
1 17 0
6 -13 0
-5 17 0
-20 -14 0
-1 11 0
-5 17 0
-16 8 0
12 17 0
-5 16 0
2 -17 0
-12 -2 0
11 -6 0
17 9 0
-7 15 0
-5 12 0
-20 -1 0
-1 13 0
-19 7 0
-16 3 0
-17 -4 0
13 16 0
-10 19 0
11 -10 0
-4 17 0
-18 -7 0
-20 -9 0
-4 -9 0
10 -12 0
10 14 0
13 -19 0
