c PROBLEM_020_100_01  vars=20  clausulas=100  k=2
p cnf 20 100
13 9 0
14 19 0
20 9 0
18 -15 0
-9 4 0
14 6 0
14 -2 0
16 4 0
-7 1 0
-4 -3 0
-5 11 0
11 -15 0
-15 11 0
4 -12 0
12 -8 0
-9 20 0
18 8 0
15 -14 0
-16 -8 0
16 -5 0
5 3 0
-7 -11 0
-4 11 0
12 7 0
-15 14 0
14 -17 0
-16 -5 0
-1 -6 0
16 -1 0
-9 -1 0
-8 -12 0
-14 8 0
14 8 0
20 17 0
-19 1 0
-14 19 0
12 15 0
-14 16 0
15 -3 0
-13 -9 0
9 3 0
-19 11 0
14 11 0
-6 10 0
5 -11 0
-20 1 0
-9 -20 0
-10 17 0
-9 8 0
19 -2 0
4 2 0
16 2 0
2 -17 0
-20 15 0
2 6 0
-15 -16 0
12 -11 0
-5 -14 0
-7 -12 0
-8 -10 0
12 10 0
2 1 0
14 2 0
-18 1 0
4 19 0
9 19 0
-9 18 0
-5 -7 0
8 -11 0
-7 12 0
-11 19 0
-20 -9 0
3 -7 0
2 -16 0
-11 -19 0
9 -15 0
9 -5 0
-12 -15 0
13 12 0
14 -17 0
-16 -5 0
9 -12 0
-13 5 0
-4 -13 0
-14 -13 0
12 -17 0
-4 -10 0
-7 -4 0
3 -12 0
-14 6 0
-8 3 0
-19 -5 0
-20 13 0
7 -3 0
13 -3 0
-12 13 0
4 19 0
12 14 0
4 8 0
-13 17 0
