c PROBLEM_020_100_13  vars=20  clausulas=100  k=2
p cnf 20 100
-19 -8 0
-3 7 0
19 -1 0
3 19 0
14 5 0
14 10 0
-2 14 0
10 17 0
-4 17 0
7 16 0
14 17 0
19 3 0
-14 -10 0
11 -5 0
9 7 0
-3 -4 0
18 6 0
-16 -2 0
-20 17 0
11 14 0
-12 7 0
20 -4 0
18 6 0
-5 -1 0
-15 2 0
-17 -20 0
-19 8 0
-11 19 0
3 -8 0
-13 14 0
-4 -1 0
-14 5 0
-10 6 0
-14 -17 0
-3 10 0
15 13 0
-2 6 0
16 20 0
-19 9 0
-18 1 0
7 -2 0
2 16 0
2 -6 0
-12 -17 0
-4 12 0
-18 11 0
-19 -9 0
-7 -8 0
-12 -15 0
-9 12 0
-9 19 0
11 15 0
5 -8 0
10 7 0
11 -8 0
18 -8 0
18 4 0
-4 19 0
5 -9 0
5 7 0
-18 5 0
-8 -9 0
20 9 0
2 -4 0
-2 11 0
20 1 0
11 -6 0
-18 -4 0
4 -5 0
-12 -13 0
-15 -10 0
-6 7 0
-8 20 0
-14 -4 0
11 -10 0
16 -1 0
9 12 0
16 -14 0
15 7 0
10 -15 0
-10 -3 0
19 -9 0
-17 -15 0
-11 -14 0
-7 3 0
-2 16 0
11 -20 0
15 -6 0
14 -8 0
9 7 0
7 -20 0
-3 19 0
17 2 0
2 15 0
18 -3 0
18 12 0
-13 14 0
-15 7 0
18 19 0
-17 -9 0
