c PROBLEM_020_100_04  vars=20  clausulas=100  k=2
p cnf 20 100
15 -13 0
-14 8 0
-14 -17 0
-6 8 0
3 -19 0
11 -2 0
2 -5 0
-4 11 0
-2 16 0
19 -4 0
-14 -9 0
-10 -12 0
11 -20 0
17 11 0
-15 -7 0
18 7 0
-18 6 0
12 -9 0
-5 18 0
-18 -14 0
-19 -7 0
19 17 0
-12 15 0
6 20 0
19 8 0
-8 10 0
-3 16 0
-15 16 0
13 1 0
3 -1 0
-5 -4 0
10 15 0
17 4 0
11 -8 0
8 7 0
-17 18 0
15 19 0
4 5 0
-1 -19 0
-12 -8 0
-17 -1 0
-19 -10 0
-17 -2 0
-11 4 0
-18 10 0
19 18 0
-7 -15 0
12 -5 0
5 -17 0
-11 4 0
8 3 0
-3 9 0
16 -18 0
2 16 0
-12 -5 0
-20 11 0
-9 -3 0
-8 1 0
1 19 0
16 -2 0
11 14 0
4 11 0
11 14 0
-12 -17 0
-1 -18 0
-12 -3 0
-8 7 0
18 3 0
-11 5 0
-15 12 0
-19 -6 0
-9 -16 0
-11 13 0
2 -20 0
-11 5 0
7 14 0
10 -9 0
-12 20 0
9 10 0
18 17 0
20 16 0
13 14 0
-2 -6 0
-2 -20 0
9 -7 0
16 13 0
-9 -12 0
-1 -4 0
5 11 0
16 7 0
3 20 0
16 11 0
13 -3 0
-8 2 0
4 -3 0
10 -17 0
-13 4 0
11 2 0
-9 4 0
-14 20 0
