c PROBLEM_020_100_42  vars=20  clausulas=100  k=2
p cnf 20 100
19 -17 0
-18 12 0
-14 18 0
-20 -16 0
5 -16 0
-15 -4 0
4 12 0
-9 13 0
-11 -12 0
-4 2 0
18 9 0
-4 7 0
1 -13 0
13 -18 0
17 -16 0
2 -12 0
20 13 0
4 11 0
17 -14 0
15 13 0
-7 14 0
16 -10 0
-8 -17 0
-15 -10 0
-15 -7 0
-9 11 0
-20 9 0
-5 4 0
6 19 0
15 -18 0
14 17 0
-6 5 0
-19 20 0
7 -9 0
-6 4 0
-2 -18 0
9 -11 0
5 -1 0
5 -6 0
4 -5 0
-1 5 0
-16 -20 0
-8 4 0
-2 9 0
20 -8 0
15 -10 0
-13 6 0
7 -16 0
12 -14 0
20 -13 0
16 -7 0
-2 5 0
-18 6 0
-8 10 0
-2 -15 0
-1 -8 0
11 -15 0
6 -7 0
7 -3 0
-2 16 0
6 12 0
17 7 0
-7 -12 0
-20 -16 0
-9 -16 0
12 8 0
6 -9 0
-18 -12 0
-14 7 0
1 6 0
10 8 0
-14 10 0
-6 -5 0
4 14 0
-14 -10 0
-18 19 0
-3 5 0
3 -19 0
-10 8 0
6 -16 0
3 4 0
20 9 0
8 12 0
-7 4 0
16 -15 0
-6 20 0
19 17 0
1 -11 0
-8 -2 0
3 14 0
8 10 0
-7 -2 0
-4 -8 0
14 -8 0
-5 10 0
2 17 0
1 -7 0
-3 -5 0
-10 19 0
-20 19 0
