c PROBLEM_020_100_37  vars=20  clausulas=100  k=2
p cnf 20 100
2 -11 0
1 -2 0
5 20 0
-2 -17 0
4 19 0
-11 10 0
13 3 0
-4 -11 0
2 13 0
11 18 0
-3 -5 0
16 20 0
15 11 0
20 -10 0
9 1 0
18 -1 0
-13 5 0
-16 -17 0
8 2 0
-14 -10 0
-1 -13 0
-16 -13 0
-12 13 0
-15 -18 0
-17 8 0
-13 4 0
1 -8 0
7 -3 0
-19 15 0
15 -7 0
-11 15 0
20 -4 0
-9 11 0
12 -3 0
-5 8 0
8 20 0
-12 -9 0
-6 15 0
-14 1 0
-1 -5 0
-16 4 0
10 8 0
-14 5 0
14 -16 0
16 -19 0
16 -15 0
-4 17 0
20 11 0
8 20 0
-5 12 0
6 -14 0
7 5 0
10 -4 0
-18 -9 0
-6 -2 0
-3 10 0
-19 4 0
-2 -11 0
11 -2 0
11 7 0
12 -7 0
-19 -20 0
-7 -2 0
-13 -12 0
17 14 0
-18 -8 0
-19 -6 0
2 -6 0
13 14 0
-19 -7 0
-15 -18 0
-20 1 0
13 -15 0
15 -4 0
14 19 0
-19 -6 0
6 -8 0
19 -12 0
-19 -9 0
-18 20 0
3 -15 0
-9 18 0
-18 -17 0
11 -20 0
-10 18 0
-13 -15 0
-10 -3 0
-7 5 0
10 -8 0
-20 6 0
19 2 0
17 16 0
6 -12 0
-5 1 0
10 -4 0
-20 17 0
-12 4 0
-6 17 0
12 16 0
19 -14 0
