c PROBLEM_020_100_05  vars=20  clausulas=100  k=2
p cnf 20 100
5 13 0
-20 10 0
13 17 0
15 11 0
-8 -16 0
-14 -16 0
-11 16 0
-17 -9 0
-7 12 0
-2 -18 0
-13 -8 0
6 8 0
1 11 0
15 -10 0
-20 -2 0
4 10 0
-20 -4 0
13 -16 0
-9 3 0
-1 -19 0
-6 -4 0
1 10 0
4 2 0
6 3 0
2 -4 0
-18 -4 0
-16 12 0
8 -16 0
4 -13 0
3 19 0
-18 -15 0
7 -20 0
-19 6 0
-5 -18 0
-6 10 0
-18 -9 0
-17 4 0
12 7 0
4 -16 0
-12 -20 0
20 4 0
-18 11 0
-10 6 0
-8 -7 0
-1 -18 0
-17 15 0
-4 17 0
12 -2 0
18 2 0
15 10 0
9 17 0
-12 -9 0
19 4 0
9 6 0
20 9 0
-11 -16 0
5 15 0
-15 20 0
-2 19 0
-10 -11 0
1 19 0
-11 -8 0
-9 3 0
5 1 0
-18 2 0
-17 12 0
15 1 0
-6 -8 0
-9 -19 0
-12 -20 0
4 -1 0
7 13 0
6 2 0
10 4 0
11 -18 0
-6 -1 0
-15 -7 0
5 -18 0
-6 9 0
-17 8 0
4 -17 0
1 -16 0
-9 -6 0
7 18 0
-6 -13 0
-3 -14 0
15 -16 0
3 -10 0
-1 -15 0
-8 9 0
-8 -6 0
-1 -10 0
-20 14 0
3 -1 0
-20 4 0
-12 10 0
5 6 0
14 -18 0
4 20 0
9 -4 0
