c PROBLEM_020_100_10  vars=20  clausulas=100  k=2
p cnf 20 100
2 -5 0
-3 -8 0
-11 19 0
-3 -4 0
7 -3 0
-19 16 0
18 9 0
1 -17 0
-17 -8 0
11 -15 0
3 -16 0
-13 10 0
5 -20 0
-15 9 0
-3 -5 0
4 -15 0
-1 -6 0
3 11 0
18 11 0
11 -10 0
14 5 0
7 15 0
5 -14 0
-20 12 0
-13 7 0
-5 13 0
8 -4 0
20 -19 0
17 -8 0
-1 -6 0
-10 -4 0
-6 7 0
-9 -2 0
5 18 0
-16 11 0
9 4 0
15 -10 0
-18 12 0
-4 2 0
-19 -6 0
-12 17 0
-6 -7 0
7 -20 0
-4 14 0
14 8 0
2 6 0
-14 17 0
-6 -7 0
-10 -6 0
-8 -3 0
8 15 0
8 17 0
3 -12 0
1 -7 0
-16 3 0
14 -9 0
2 -3 0
12 11 0
16 -15 0
-9 19 0
-14 1 0
-14 19 0
7 6 0
-16 -10 0
19 -17 0
-12 9 0
11 20 0
-17 8 0
19 13 0
-20 15 0
14 -16 0
11 10 0
-15 9 0
19 -1 0
-20 -11 0
1 13 0
7 -17 0
20 -11 0
-9 14 0
3 -17 0
10 -8 0
-7 5 0
11 -13 0
9 -3 0
-6 1 0
-17 -7 0
10 -3 0
19 4 0
20 19 0
13 -9 0
16 12 0
-15 2 0
-8 -6 0
1 11 0
-4 -17 0
9 -1 0
-14 12 0
1 -19 0
-14 -8 0
-18 -20 0
