c PROBLEM_020_100_02  vars=20  clausulas=100  k=2
p cnf 20 100
-7 8 0
13 -12 0
-16 11 0
-4 19 0
-3 -18 0
2 -4 0
-19 2 0
18 2 0
4 -20 0
2 8 0
11 -2 0
-8 6 0
-15 18 0
11 -9 0
-5 2 0
-11 -19 0
-9 16 0
-15 -20 0
-12 -10 0
2 16 0
14 16 0
5 -10 0
-17 5 0
9 1 0
16 20 0
-10 -6 0
-14 15 0
7 -19 0
-19 4 0
7 -8 0
-9 -6 0
20 19 0
-16 7 0
-11 7 0
16 -1 0
12 8 0
16 7 0
-12 -11 0
-16 -4 0
11 1 0
-9 -19 0
-6 -16 0
4 3 0
-10 15 0
15 12 0
8 20 0
-11 16 0
-18 -12 0
19 -10 0
19 -14 0
-18 3 0
-4 -5 0
-9 10 0
1 -6 0
6 7 0
20 13 0
-7 3 0
-6 7 0
18 6 0
12 5 0
1 -14 0
-17 15 0
19 8 0
17 8 0
11 18 0
-9 -13 0
2 19 0
13 -16 0
15 -3 0
10 9 0
19 15 0
5 14 0
-19 -17 0
19 -3 0
-4 15 0
-7 17 0
2 -19 0
-13 4 0
-13 10 0
-4 -3 0
12 -1 0
-8 16 0
1 2 0
-12 13 0
-1 -2 0
-9 -10 0
7 1 0
19 7 0
-10 -12 0
-1 9 0
-18 -16 0
-2 7 0
-5 -6 0
-16 1 0
5 7 0
-3 12 0
-5 6 0
-19 -18 0
-20 13 0
6 16 0
