c PROBLEM_020_100_19  vars=20  clausulas=100  k=2
p cnf 20 100
-12 17 0
11 15 0
-14 -17 0
9 -13 0
12 11 0
6 -4 0
-13 20 0
7 17 0
-11 17 0
15 17 0
-16 19 0
11 10 0
1 -7 0
-18 1 0
7 8 0
12 20 0
-12 2 0
13 14 0
3 -9 0
-20 7 0
13 4 0
4 3 0
-14 -2 0
-18 -17 0
-12 11 0
7 -1 0
-4 6 0
-19 -20 0
-6 -4 0
8 -7 0
14 12 0
-13 -11 0
-16 -1 0
-7 -13 0
16 9 0
18 -2 0
13 -14 0
-3 18 0
15 -19 0
3 7 0
-3 7 0
-12 16 0
3 -14 0
12 -7 0
1 -3 0
20 10 0
9 -10 0
4 -1 0
-6 15 0
14 3 0
-8 -5 0
5 -10 0
12 -3 0
3 -6 0
-20 3 0
17 -3 0
8 -16 0
11 -6 0
15 -9 0
-15 -1 0
19 -2 0
13 -8 0
-15 16 0
13 12 0
-8 -11 0
11 -20 0
13 -10 0
-17 -8 0
8 -1 0
19 -16 0
5 -7 0
-17 7 0
-10 9 0
-6 20 0
-7 -8 0
-8 -14 0
1 -11 0
-2 4 0
12 -9 0
-15 -20 0
-6 -5 0
3 -18 0
14 -17 0
-17 -7 0
-16 -10 0
12 1 0
-20 9 0
-12 16 0
-19 -10 0
-6 -17 0
16 -10 0
18 -14 0
-7 -5 0
17 -13 0
-13 -15 0
-5 6 0
9 -16 0
14 -19 0
1 -17 0
-6 7 0
