c PROBLEM_035_080_21  vars=35  clausulas=80  k=2
p cnf 35 80
7 20 0
-34 10 0
-4 1 0
17 -15 0
25 29 0
-11 34 0
-15 -33 0
29 3 0
16 28 0
-12 35 0
-14 21 0
11 26 0
19 11 0
29 -7 0
32 19 0
-12 35 0
-26 -25 0
-1 15 0
4 -13 0
-26 11 0
31 -2 0
-3 5 0
-1 -23 0
2 23 0
22 11 0
2 -25 0
-32 -16 0
-11 5 0
25 -34 0
23 9 0
-29 22 0
32 -22 0
22 35 0
-14 12 0
-35 -1 0
-14 -6 0
-7 9 0
24 28 0
21 33 0
9 30 0
-6 -11 0
-26 -28 0
-18 -8 0
2 12 0
5 35 0
35 -28 0
21 -7 0
-31 -22 0
5 21 0
-23 -3 0
21 -7 0
5 -31 0
-15 5 0
22 4 0
23 -27 0
13 -11 0
20 -12 0
-30 14 0
-25 22 0
-24 -34 0
-28 -5 0
-31 19 0
13 -26 0
-15 -5 0
34 28 0
-26 -21 0
2 -6 0
11 32 0
-5 1 0
17 25 0
-8 22 0
7 -34 0
-18 2 0
-4 -7 0
12 8 0
27 22 0
22 -5 0
34 -22 0
30 -1 0
15 28 0
