c PROBLEM_035_080_33  vars=35  clausulas=80  k=2
p cnf 35 80
-35 32 0
-4 -33 0
-22 35 0
-32 -20 0
19 10 0
-9 12 0
20 23 0
6 -28 0
-19 30 0
-21 -19 0
-5 -19 0
3 -18 0
2 -21 0
-21 28 0
-30 9 0
26 24 0
5 18 0
27 -20 0
11 5 0
-33 -17 0
6 -23 0
3 33 0
-13 11 0
-4 -21 0
-12 -15 0
24 32 0
-2 34 0
27 -1 0
26 11 0
9 34 0
-3 34 0
-5 24 0
7 -19 0
-3 -4 0
8 -30 0
-34 -5 0
6 -25 0
-16 -12 0
-3 -27 0
18 -29 0
28 -6 0
-32 -8 0
-13 19 0
-31 11 0
-11 -14 0
18 12 0
-20 -15 0
22 -27 0
-20 -1 0
-29 22 0
12 -10 0
-20 -35 0
-17 -35 0
15 2 0
5 -27 0
33 27 0
-26 35 0
-15 -29 0
7 -31 0
-8 7 0
-25 14 0
29 -32 0
1 28 0
-21 27 0
8 19 0
-2 27 0
-8 -29 0
-1 19 0
19 -12 0
-3 16 0
13 8 0
2 -32 0
17 -22 0
-22 6 0
18 31 0
-29 2 0
32 21 0
25 34 0
4 24 0
-12 -9 0
