c PROBLEM_035_080_10  vars=35  clausulas=80  k=2
p cnf 35 80
-24 29 0
29 -24 0
33 -15 0
27 -21 0
14 30 0
-12 -7 0
-4 -29 0
10 -28 0
12 -29 0
-22 -6 0
-34 22 0
-1 9 0
-1 -7 0
-29 24 0
13 3 0
25 -33 0
-19 -14 0
26 -4 0
8 -27 0
-2 -8 0
-11 -28 0
15 -35 0
-17 3 0
-34 -23 0
28 24 0
32 15 0
-6 32 0
9 -11 0
-13 6 0
-24 14 0
-19 9 0
7 -21 0
-2 -1 0
-17 -35 0
-23 -31 0
18 -27 0
27 8 0
-2 -33 0
-25 -6 0
-12 -20 0
31 -17 0
-10 26 0
-20 -8 0
-20 -1 0
10 27 0
-34 -33 0
-7 16 0
-19 -5 0
-11 21 0
25 14 0
10 24 0
-12 27 0
-15 -23 0
33 30 0
4 30 0
-16 -29 0
-4 -17 0
14 22 0
28 -30 0
-23 -6 0
1 -33 0
-30 -13 0
-35 -14 0
-14 -22 0
19 26 0
-23 -27 0
-34 -35 0
-31 -25 0
-21 6 0
19 -5 0
-26 3 0
-27 20 0
17 4 0
-30 -23 0
-17 -18 0
-4 30 0
-11 -8 0
14 5 0
17 26 0
32 -28 0
