c PROBLEM_035_080_24  vars=35  clausulas=80  k=2
p cnf 35 80
-32 12 0
-7 -15 0
28 23 0
-33 -24 0
-27 -24 0
-28 16 0
-8 26 0
-10 -13 0
20 16 0
-33 19 0
-12 7 0
-21 -28 0
-35 -14 0
15 -30 0
13 16 0
-6 -11 0
7 -2 0
25 -26 0
24 -10 0
-7 30 0
18 23 0
5 -14 0
-3 9 0
25 -15 0
-14 30 0
14 -20 0
-10 18 0
26 20 0
-19 25 0
19 -27 0
-22 6 0
2 24 0
13 1 0
-10 34 0
33 17 0
-9 6 0
9 11 0
-28 32 0
-27 -17 0
-17 16 0
11 -25 0
23 6 0
-26 -34 0
29 12 0
-19 -18 0
-13 -26 0
-34 -2 0
9 8 0
4 -21 0
27 19 0
34 -5 0
20 -29 0
6 -18 0
-1 -4 0
-3 -32 0
-30 -14 0
30 35 0
23 1 0
6 -24 0
-8 -29 0
-21 -20 0
-35 -17 0
-22 6 0
24 -18 0
-9 -30 0
31 3 0
11 23 0
5 -19 0
-33 -11 0
6 8 0
-19 -23 0
29 -34 0
-11 -33 0
-11 4 0
-21 -31 0
18 -17 0
30 -2 0
27 5 0
6 -28 0
7 -27 0
