c PROBLEM_035_080_16  vars=35  clausulas=80  k=2
p cnf 35 80
2 29 0
4 10 0
3 -1 0
11 -17 0
-35 -26 0
-3 -4 0
4 2 0
-8 -23 0
11 13 0
21 12 0
-29 32 0
-12 -3 0
-15 -6 0
14 16 0
30 -32 0
-25 26 0
5 -7 0
1 -19 0
-29 11 0
-24 -1 0
9 19 0
17 -22 0
-9 18 0
-13 -22 0
6 26 0
20 28 0
-7 28 0
21 -23 0
31 -13 0
35 -32 0
-2 -14 0
-34 14 0
-31 -1 0
-15 -19 0
20 22 0
19 7 0
-13 32 0
-28 -16 0
-18 -15 0
34 -29 0
-23 -18 0
-10 -28 0
22 -1 0
27 25 0
11 -2 0
-1 -24 0
4 5 0
12 -7 0
8 -30 0
10 -12 0
-4 -33 0
9 -3 0
-11 -8 0
-24 -30 0
8 19 0
-25 28 0
-24 30 0
-35 7 0
-3 -19 0
-17 -33 0
-19 30 0
5 -19 0
-11 28 0
-28 3 0
-17 -28 0
20 -3 0
4 29 0
-28 23 0
-17 26 0
26 -23 0
-35 -34 0
30 -2 0
22 34 0
-35 -32 0
-5 -30 0
-35 -18 0
23 -29 0
-12 -16 0
28 -18 0
7 -11 0
