c PROBLEM_035_080_04  vars=35  clausulas=80  k=2
p cnf 35 80
19 27 0
31 -17 0
21 9 0
-30 28 0
-27 26 0
-34 32 0
-8 -12 0
-33 9 0
-13 -32 0
-15 34 0
-32 3 0
-20 19 0
-8 31 0
-33 16 0
22 -10 0
14 -21 0
2 11 0
-25 16 0
-9 19 0
17 -4 0
-22 20 0
6 24 0
15 33 0
7 28 0
-9 -35 0
-24 -4 0
-14 -9 0
-7 -17 0
33 29 0
-29 31 0
-29 -22 0
-2 -25 0
23 -2 0
-31 -27 0
-10 -13 0
-24 25 0
34 -10 0
-28 29 0
13 -30 0
-5 -22 0
23 21 0
-22 2 0
33 -35 0
-1 -8 0
-21 30 0
-7 -33 0
22 1 0
4 23 0
12 -19 0
-24 21 0
-4 -35 0
-19 -16 0
-16 -33 0
-2 10 0
-26 13 0
13 -17 0
-23 21 0
32 -5 0
27 -24 0
-15 24 0
28 -24 0
29 -22 0
12 8 0
13 -3 0
-14 -22 0
27 -14 0
-28 6 0
-18 -14 0
-15 21 0
-2 25 0
-9 2 0
1 28 0
17 12 0
22 -6 0
-7 14 0
-21 26 0
19 -6 0
32 -13 0
31 -18 0
-31 13 0
