c PROBLEM_035_080_43  vars=35  clausulas=80  k=2
p cnf 35 80
8 -5 0
-33 12 0
-20 8 0
-10 -32 0
-13 -25 0
-6 -25 0
-31 -21 0
-19 22 0
13 32 0
-19 -15 0
-3 8 0
-27 17 0
-9 -3 0
-6 26 0
25 -16 0
10 -14 0
-13 -24 0
-22 18 0
-3 -8 0
-32 -19 0
-34 20 0
5 -24 0
-19 -26 0
-33 -35 0
-16 -1 0
-23 7 0
27 35 0
-34 -4 0
13 17 0
27 -34 0
-34 6 0
-10 -17 0
-8 15 0
6 -9 0
-33 -34 0
-28 17 0
22 -18 0
-8 4 0
-23 -35 0
-32 -21 0
-24 18 0
-2 -30 0
7 -28 0
30 11 0
14 12 0
-15 -11 0
-29 9 0
9 27 0
-7 9 0
20 9 0
-22 28 0
-4 -12 0
-35 -9 0
-34 -20 0
-29 12 0
-9 29 0
11 30 0
-6 -14 0
-27 -8 0
-25 -24 0
-2 -13 0
23 -18 0
-14 6 0
21 31 0
16 -33 0
33 1 0
-3 -6 0
-22 34 0
-17 26 0
-3 -28 0
-34 -13 0
3 1 0
-31 -13 0
-11 19 0
9 -15 0
-4 -35 0
-28 6 0
27 24 0
12 18 0
-21 -25 0
