c PROBLEM_035_080_13  vars=35  clausulas=80  k=2
p cnf 35 80
23 -27 0
7 22 0
21 -12 0
28 -33 0
28 9 0
25 8 0
-4 16 0
30 -23 0
-7 -35 0
6 20 0
-24 9 0
-10 2 0
28 -35 0
33 -30 0
31 33 0
-12 -29 0
33 21 0
-5 -10 0
13 7 0
31 30 0
-15 2 0
34 -32 0
-18 -22 0
22 -33 0
-31 -13 0
32 -31 0
24 -8 0
-21 15 0
35 -7 0
29 3 0
20 35 0
-4 28 0
-12 -25 0
26 33 0
10 32 0
-7 -22 0
-5 -23 0
4 30 0
-14 -21 0
9 -7 0
11 3 0
-21 -33 0
-29 -22 0
25 29 0
18 -2 0
-12 20 0
31 -22 0
-32 -34 0
7 -5 0
5 -35 0
-3 35 0
1 12 0
-33 -35 0
16 -18 0
-7 -1 0
-14 1 0
34 -24 0
19 -18 0
-31 -25 0
23 -2 0
6 13 0
-10 -35 0
27 2 0
-16 -28 0
23 -28 0
29 -35 0
-8 -17 0
-1 11 0
-22 -18 0
11 -3 0
30 7 0
1 5 0
-28 7 0
-12 -20 0
26 -25 0
19 22 0
19 29 0
-17 -16 0
26 -3 0
-22 -15 0
