c PROBLEM_035_080_11  vars=35  clausulas=80  k=2
p cnf 35 80
-27 2 0
-14 -13 0
33 30 0
15 -25 0
-18 -23 0
-20 -28 0
16 -27 0
-34 -16 0
-31 -27 0
-8 15 0
6 24 0
-7 18 0
7 -11 0
15 14 0
-4 -17 0
-8 24 0
8 14 0
-12 9 0
8 29 0
-23 -14 0
-24 -9 0
20 -8 0
-6 21 0
-1 24 0
-12 -13 0
-4 -23 0
-20 12 0
-4 25 0
25 1 0
-22 25 0
-8 -19 0
23 -30 0
26 14 0
32 22 0
-18 14 0
17 26 0
1 -24 0
19 -14 0
28 1 0
-3 -12 0
-7 -22 0
7 -26 0
28 5 0
-11 -20 0
32 -22 0
11 1 0
20 -1 0
-9 -30 0
34 35 0
25 6 0
10 -15 0
-21 -30 0
1 -30 0
26 15 0
21 -5 0
-32 -13 0
24 -1 0
17 7 0
28 -5 0
9 -2 0
21 -4 0
-21 -4 0
11 -33 0
-6 21 0
25 29 0
-17 -14 0
19 30 0
-8 24 0
-27 -21 0
28 27 0
28 9 0
-23 -22 0
5 -22 0
19 -26 0
27 -1 0
-35 -19 0
-34 16 0
-2 19 0
-16 3 0
19 9 0
