c PROBLEM_035_080_12  vars=35  clausulas=80  k=2
p cnf 35 80
-27 -11 0
-13 21 0
-33 -9 0
31 -18 0
-18 31 0
22 -26 0
33 24 0
25 4 0
16 3 0
-10 -35 0
15 -20 0
3 -12 0
-30 12 0
16 -5 0
-20 -16 0
-7 -3 0
-1 -14 0
-18 29 0
-14 -9 0
-22 20 0
-21 -11 0
-21 17 0
-4 -11 0
28 -7 0
-29 -35 0
12 10 0
15 8 0
-7 -20 0
12 -7 0
6 -16 0
26 -27 0
-9 -27 0
-7 16 0
-4 8 0
-35 9 0
-24 -8 0
17 -30 0
15 -21 0
-16 20 0
-14 35 0
-8 24 0
5 31 0
-20 -6 0
-9 -2 0
-17 -20 0
20 26 0
27 20 0
13 9 0
28 23 0
20 -27 0
16 12 0
-32 18 0
-33 3 0
15 -1 0
-29 -3 0
28 20 0
25 -15 0
-33 26 0
35 -24 0
-19 -13 0
24 -1 0
-23 19 0
-31 1 0
23 -11 0
-15 -4 0
34 -21 0
27 17 0
-18 1 0
-4 -16 0
2 -28 0
-32 33 0
-27 -4 0
23 -5 0
-18 -26 0
-11 -20 0
32 -3 0
-5 16 0
-3 21 0
13 -1 0
15 7 0
