c PROBLEM_035_080_02  vars=35  clausulas=80  k=2
p cnf 35 80
-18 -5 0
-8 35 0
10 22 0
-2 1 0
23 28 0
-14 32 0
34 26 0
-23 28 0
7 -33 0
11 28 0
-6 30 0
-17 -24 0
-18 2 0
-13 -28 0
19 27 0
6 -8 0
-28 20 0
-25 -32 0
-33 -14 0
-2 9 0
20 -22 0
-28 -21 0
9 -4 0
-25 -20 0
1 -30 0
25 -29 0
-1 33 0
20 18 0
30 34 0
6 -29 0
-19 32 0
11 15 0
21 -12 0
15 5 0
21 16 0
-34 32 0
14 8 0
24 -6 0
-8 27 0
2 -4 0
-25 -31 0
32 -22 0
17 -35 0
-25 35 0
-8 -2 0
32 6 0
9 21 0
6 -17 0
-4 16 0
32 28 0
-15 -5 0
-27 -29 0
-1 -14 0
-21 -11 0
-24 -6 0
3 -23 0
-12 -17 0
-24 -4 0
-31 11 0
-35 6 0
7 -3 0
-12 30 0
7 1 0
-10 -6 0
13 6 0
-13 15 0
-9 -29 0
14 22 0
-26 -15 0
-19 13 0
10 12 0
-18 33 0
2 -8 0
-14 22 0
-19 18 0
26 -33 0
6 -8 0
-10 26 0
-4 -29 0
-18 -9 0
