c PROBLEM_035_080_49  vars=35  clausulas=80  k=2
p cnf 35 80
-15 -2 0
23 -17 0
12 -17 0
-20 30 0
2 -1 0
11 6 0
-15 -5 0
-25 4 0
5 -32 0
-32 -21 0
-20 -16 0
-18 -22 0
15 -4 0
9 28 0
17 -28 0
25 9 0
-30 1 0
20 -3 0
-30 -10 0
14 6 0
-9 -26 0
-14 -35 0
4 -1 0
-7 23 0
21 -13 0
16 -13 0
29 -19 0
-2 -28 0
15 -6 0
24 -18 0
8 -22 0
-3 -4 0
18 16 0
32 -17 0
5 27 0
2 -21 0
33 24 0
-13 -3 0
-24 1 0
11 -31 0
-15 19 0
11 -28 0
-1 -14 0
-21 29 0
34 -16 0
-5 32 0
-10 -6 0
-27 28 0
-10 4 0
8 -35 0
-7 8 0
-18 13 0
-24 25 0
-6 -15 0
-12 -33 0
-2 -11 0
23 16 0
4 -17 0
-15 -17 0
-33 4 0
29 -27 0
31 -11 0
-21 -2 0
25 14 0
13 -15 0
18 -24 0
20 24 0
12 -29 0
33 -15 0
-21 30 0
10 21 0
-28 -35 0
5 -14 0
-28 -34 0
12 -4 0
-6 -23 0
-3 10 0
-32 -9 0
13 9 0
33 -19 0
