c PROBLEM_035_080_20  vars=35  clausulas=80  k=2
p cnf 35 80
-25 -28 0
15 20 0
-30 -20 0
-1 12 0
-24 -11 0
-33 -27 0
31 -22 0
9 22 0
10 17 0
5 11 0
-3 20 0
18 20 0
5 23 0
-27 -17 0
4 -15 0
-6 -30 0
-1 5 0
7 12 0
-29 -32 0
-10 5 0
21 3 0
-10 -7 0
-15 -20 0
15 -26 0
34 28 0
-17 30 0
-7 -3 0
-13 16 0
21 -2 0
14 -6 0
-33 -1 0
-32 24 0
6 27 0
-11 24 0
22 15 0
25 -19 0
18 -16 0
27 -8 0
7 16 0
22 -32 0
26 -30 0
-22 -5 0
23 15 0
6 -5 0
7 18 0
-3 -32 0
-29 31 0
11 34 0
-24 26 0
-1 -34 0
-3 -13 0
-23 -35 0
-16 6 0
13 6 0
-2 -11 0
29 13 0
17 -2 0
23 8 0
9 34 0
17 4 0
28 18 0
4 -34 0
10 8 0
15 27 0
-23 -14 0
-17 24 0
21 -13 0
10 -24 0
1 -20 0
33 -7 0
-22 12 0
-30 -27 0
-9 -21 0
3 35 0
2 6 0
9 -24 0
-7 -10 0
-5 19 0
-29 1 0
-30 -22 0
