c PROBLEM_035_080_35  vars=35  clausulas=80  k=2
p cnf 35 80
-15 -21 0
35 -25 0
24 -7 0
32 34 0
32 16 0
22 5 0
-9 16 0
2 -28 0
23 10 0
-1 -13 0
-32 -19 0
-32 11 0
-4 1 0
19 25 0
22 16 0
-26 34 0
5 -23 0
-23 27 0
-31 -9 0
15 -18 0
15 -13 0
-5 -11 0
2 -24 0
-13 -20 0
-4 23 0
-18 -31 0
-18 12 0
-33 35 0
-4 14 0
-26 -34 0
14 -13 0
11 -12 0
-31 -12 0
23 30 0
29 31 0
18 -15 0
10 5 0
6 -33 0
-21 -8 0
34 -3 0
26 25 0
22 11 0
-16 15 0
8 3 0
16 5 0
31 -35 0
2 34 0
-31 -4 0
-30 17 0
-27 -30 0
-13 -1 0
-7 29 0
-13 -28 0
21 -7 0
18 7 0
12 -20 0
-28 -7 0
-35 -31 0
32 14 0
7 -17 0
12 28 0
-8 28 0
-24 -12 0
-8 -6 0
-8 4 0
13 33 0
-24 -33 0
31 -3 0
-15 34 0
9 -21 0
-22 17 0
-19 -27 0
10 26 0
20 -6 0
-11 -9 0
26 33 0
-12 22 0
20 8 0
-23 6 0
-28 19 0
