c PROBLEM_035_080_34  vars=35  clausulas=80  k=2
p cnf 35 80
9 -32 0
-11 32 0
-5 -27 0
-13 -35 0
-14 -35 0
8 29 0
-34 9 0
20 -18 0
26 31 0
-7 -6 0
-29 32 0
5 10 0
-5 7 0
26 1 0
-13 10 0
-21 -15 0
-26 -21 0
-4 34 0
-4 31 0
24 31 0
17 -11 0
-7 -28 0
-31 20 0
8 20 0
-15 17 0
9 6 0
25 18 0
-5 -10 0
-22 -16 0
25 -12 0
24 11 0
-28 -22 0
17 1 0
34 9 0
-26 -16 0
-11 -19 0
26 18 0
29 -21 0
13 21 0
12 4 0
31 11 0
2 -1 0
-35 -34 0
7 -34 0
-10 31 0
34 31 0
-22 -25 0
4 -8 0
34 -5 0
31 34 0
24 26 0
-31 30 0
18 -23 0
-16 -35 0
14 -8 0
13 -33 0
14 26 0
27 -3 0
-16 34 0
10 -2 0
13 -17 0
22 -35 0
-10 9 0
-15 -21 0
13 -28 0
1 -4 0
-31 -26 0
33 -28 0
-20 11 0
29 -23 0
-28 -34 0
23 21 0
-2 -8 0
8 33 0
28 -20 0
13 10 0
20 -24 0
25 29 0
16 20 0
-4 -24 0
