c PROBLEM_035_080_27  vars=35  clausulas=80  k=2
p cnf 35 80
-28 6 0
-14 -25 0
-23 2 0
7 -17 0
-20 -5 0
15 2 0
-12 -20 0
-4 5 0
34 17 0
-24 29 0
3 -35 0
-28 -20 0
-9 -1 0
29 11 0
8 18 0
-23 -12 0
-5 -31 0
-34 -23 0
32 -22 0
22 -17 0
-7 3 0
2 -12 0
-13 -10 0
-30 26 0
-35 34 0
-33 -24 0
-31 -7 0
-28 -14 0
-5 20 0
-29 -14 0
-4 -20 0
10 -29 0
15 28 0
-26 19 0
-24 -29 0
-27 -10 0
-30 -2 0
22 27 0
6 21 0
-2 18 0
25 -19 0
-3 -32 0
-13 5 0
12 31 0
2 -17 0
-7 12 0
-27 -6 0
-19 -7 0
1 25 0
-7 -28 0
34 19 0
-23 -31 0
-6 20 0
-1 -2 0
18 34 0
-13 -11 0
3 9 0
9 33 0
-1 -16 0
-31 -8 0
26 -8 0
-29 -6 0
13 24 0
20 -9 0
7 9 0
13 25 0
18 -33 0
12 -34 0
5 -11 0
34 17 0
-13 24 0
27 -6 0
11 13 0
15 -33 0
5 -8 0
10 -22 0
-33 -16 0
-10 32 0
22 -8 0
32 -20 0
