c PROBLEM_035_080_19  vars=35  clausulas=80  k=2
p cnf 35 80
-12 -2 0
-3 -16 0
-35 -22 0
-35 -10 0
22 1 0
13 22 0
-10 -25 0
27 11 0
-30 -19 0
17 2 0
5 17 0
-10 18 0
29 -24 0
17 5 0
-34 -28 0
27 -34 0
6 20 0
-15 4 0
19 1 0
-33 10 0
-3 -16 0
14 -27 0
14 -26 0
-4 28 0
-13 34 0
-24 -9 0
6 7 0
-14 -23 0
-10 33 0
29 31 0
-17 2 0
1 -19 0
-28 34 0
-24 -28 0
-31 30 0
4 -5 0
17 -34 0
8 17 0
1 8 0
32 7 0
14 27 0
-21 -14 0
21 29 0
-23 -4 0
-3 -6 0
-34 6 0
21 -33 0
16 -15 0
-8 18 0
-27 -2 0
25 13 0
15 29 0
19 33 0
-35 -27 0
17 -29 0
-8 -3 0
26 31 0
17 18 0
-15 19 0
-5 34 0
34 -32 0
-3 -34 0
25 5 0
-5 29 0
20 -26 0
-28 -14 0
32 -7 0
-11 13 0
32 3 0
3 19 0
-25 22 0
20 -19 0
-13 -9 0
-32 -15 0
33 -18 0
29 26 0
20 -34 0
-30 4 0
-1 -29 0
-30 -35 0
