c PROBLEM_035_080_22  vars=35  clausulas=80  k=2
p cnf 35 80
-4 -28 0
33 -6 0
-34 16 0
29 27 0
-23 -24 0
-15 3 0
28 33 0
14 26 0
-9 17 0
-33 -29 0
-17 1 0
19 -33 0
10 -12 0
-19 20 0
30 12 0
21 17 0
31 -22 0
-32 1 0
11 -13 0
-32 -34 0
30 -6 0
-27 -3 0
-5 -20 0
-15 21 0
-32 -20 0
15 -17 0
12 -33 0
-32 8 0
-32 3 0
28 -18 0
-25 -20 0
-22 -31 0
-19 2 0
-19 30 0
18 9 0
-1 -15 0
7 -21 0
-23 -6 0
22 -3 0
-7 -26 0
-8 16 0
-8 16 0
18 25 0
-18 -28 0
-34 18 0
-6 16 0
-26 -19 0
21 -29 0
30 34 0
-8 -2 0
30 9 0
32 20 0
-13 -27 0
-29 -19 0
2 11 0
-1 6 0
29 2 0
-20 -6 0
24 -31 0
-9 -21 0
34 30 0
-6 13 0
19 -8 0
32 27 0
35 30 0
4 -10 0
-18 -1 0
24 -10 0
29 5 0
-16 13 0
29 -17 0
-1 25 0
-34 9 0
21 -14 0
-33 24 0
-28 -32 0
5 -9 0
2 -34 0
-25 23 0
-35 -18 0
