c PROBLEM_035_080_32  vars=35  clausulas=80  k=2
p cnf 35 80
-22 3 0
29 25 0
12 -8 0
17 28 0
34 21 0
-35 1 0
-25 -7 0
14 11 0
28 21 0
-14 -7 0
-34 23 0
6 17 0
-27 1 0
-22 34 0
-21 -12 0
-29 -34 0
-29 33 0
14 6 0
-33 -16 0
-9 2 0
-2 -34 0
29 2 0
1 -29 0
-19 -22 0
15 -34 0
30 -12 0
-10 -2 0
-12 -31 0
-9 35 0
-23 17 0
20 18 0
-24 -31 0
-25 -18 0
-19 26 0
-1 21 0
-14 19 0
2 -12 0
-11 25 0
-16 -27 0
-5 -27 0
28 5 0
11 -10 0
26 -13 0
10 -12 0
15 14 0
6 -9 0
21 -7 0
10 1 0
-7 23 0
30 -32 0
35 12 0
-1 -2 0
25 27 0
1 16 0
-12 14 0
-25 24 0
8 -28 0
-17 -33 0
5 8 0
-3 -4 0
8 32 0
-1 -29 0
24 -6 0
10 4 0
7 31 0
31 3 0
-12 -27 0
-12 -19 0
-31 -18 0
15 22 0
-18 -21 0
-1 18 0
13 35 0
9 1 0
-16 35 0
-12 24 0
33 16 0
12 20 0
4 10 0
1 3 0
