c PROBLEM_090_090_47  vars=90  clausulas=90  k=2
p cnf 90 90
-30 -48 0
-47 -8 0
57 -45 0
28 49 0
-33 42 0
-82 -33 0
-55 50 0
-12 37 0
-66 -26 0
-51 40 0
-77 36 0
3 -52 0
83 -6 0
3 -90 0
47 27 0
9 -73 0
-61 -63 0
-80 -14 0
84 -66 0
-6 -21 0
18 61 0
-18 -40 0
-70 -63 0
39 -77 0
10 5 0
29 5 0
9 81 0
85 58 0
44 -33 0
-56 -4 0
-74 14 0
7 -78 0
-27 -36 0
54 -76 0
-10 77 0
-23 15 0
25 -60 0
7 -13 0
86 73 0
-43 35 0
66 -37 0
56 34 0
-78 -66 0
-28 -45 0
22 -85 0
11 -52 0
56 -3 0
78 -67 0
59 -58 0
-39 75 0
62 -39 0
1 -51 0
-78 34 0
-71 -87 0
-76 25 0
41 6 0
24 -11 0
13 75 0
-57 61 0
-32 -66 0
25 -81 0
38 89 0
-31 33 0
35 -3 0
-60 -72 0
-85 -46 0
34 -71 0
83 -69 0
17 54 0
53 84 0
56 -20 0
-65 54 0
-67 -86 0
-50 -90 0
-58 52 0
-40 -35 0
-2 64 0
2 -20 0
-63 13 0
77 -79 0
82 -3 0
-48 42 0
65 -24 0
89 68 0
26 -59 0
-46 -16 0
78 -27 0
-19 88 0
-22 70 0
50 -47 0
