c PROBLEM_090_090_39  vars=90  clausulas=90  k=2
p cnf 90 90
90 15 0
19 -33 0
86 71 0
-35 61 0
-87 -16 0
-28 83 0
83 -44 0
57 -71 0
-60 -81 0
-35 -62 0
-5 35 0
-70 -10 0
-30 -64 0
-80 74 0
4 -21 0
-74 20 0
33 -51 0
-37 -81 0
-87 -65 0
29 -13 0
48 58 0
43 -14 0
-76 45 0
66 -15 0
-27 -82 0
-5 8 0
83 51 0
-74 -18 0
41 72 0
-82 37 0
78 60 0
-42 -57 0
25 21 0
-43 22 0
80 -86 0
-13 58 0
16 -72 0
-35 6 0
-39 77 0
32 -75 0
-36 46 0
69 -15 0
30 20 0
3 -75 0
-23 -19 0
66 78 0
1 32 0
53 -80 0
-69 16 0
37 -40 0
-8 56 0
-90 -63 0
34 -71 0
3 -11 0
7 84 0
-47 88 0
67 21 0
49 -81 0
-26 79 0
-38 -85 0
-2 -9 0
-73 -31 0
18 24 0
8 16 0
34 -89 0
24 55 0
-75 50 0
50 -65 0
71 -67 0
68 17 0
-16 13 0
41 78 0
-11 73 0
49 -62 0
70 -10 0
1 83 0
-5 -22 0
-59 -67 0
24 -52 0
-63 84 0
17 -55 0
-35 12 0
-88 -22 0
83 54 0
-16 -60 0
89 69 0
40 41 0
-64 36 0
15 -66 0
79 73 0
