c PROBLEM_090_090_28  vars=90  clausulas=90  k=2
p cnf 90 90
84 -49 0
37 -88 0
84 22 0
67 -86 0
30 -84 0
14 -26 0
82 -3 0
-81 4 0
31 -62 0
32 49 0
-63 41 0
-18 41 0
89 11 0
-75 -76 0
54 41 0
83 -4 0
25 -57 0
87 -28 0
-40 -35 0
22 -24 0
73 -15 0
65 -71 0
56 -70 0
-52 36 0
62 56 0
15 -87 0
2 -17 0
-55 -47 0
77 -65 0
-45 63 0
86 -51 0
-20 42 0
34 -68 0
49 52 0
78 23 0
24 15 0
-29 -73 0
-8 66 0
43 90 0
-57 76 0
-60 -89 0
64 70 0
6 -60 0
-58 -50 0
38 41 0
83 -53 0
65 2 0
26 -36 0
14 46 0
55 85 0
-8 44 0
-34 72 0
75 14 0
-44 24 0
61 79 0
-21 -11 0
-13 18 0
-60 -77 0
40 47 0
67 19 0
59 -31 0
-41 12 0
47 -65 0
-87 -73 0
-5 48 0
30 69 0
-55 -44 0
39 1 0
18 51 0
9 54 0
-36 37 0
15 41 0
8 11 0
60 -33 0
85 -28 0
-52 -7 0
-50 88 0
80 -81 0
12 29 0
-23 86 0
16 27 0
62 -13 0
21 -75 0
-61 -29 0
71 15 0
-74 -52 0
-32 -10 0
64 14 0
81 23 0
11 38 0
