c PROBLEM_090_090_04  vars=90  clausulas=90  k=2
p cnf 90 90
-70 24 0
-22 -78 0
-38 33 0
-59 -56 0
-27 -87 0
58 14 0
-54 57 0
33 -69 0
74 -64 0
16 34 0
-29 27 0
55 20 0
-76 39 0
-56 -5 0
58 -43 0
-71 63 0
-76 50 0
-88 35 0
64 -46 0
7 63 0
-37 52 0
75 15 0
-83 35 0
-77 64 0
-11 73 0
5 -17 0
70 47 0
66 49 0
16 -67 0
-46 -14 0
-45 90 0
3 62 0
-51 66 0
74 3 0
21 -14 0
-9 -1 0
-27 63 0
80 -89 0
-75 -58 0
6 -68 0
-19 -67 0
8 70 0
-22 86 0
-27 82 0
90 56 0
-25 -48 0
-86 -5 0
34 71 0
-41 8 0
-79 85 0
-48 61 0
84 60 0
-19 49 0
16 -80 0
-88 28 0
46 45 0
77 -4 0
-42 20 0
-50 7 0
40 -79 0
10 -46 0
66 26 0
-72 -88 0
87 7 0
-41 -53 0
-45 44 0
-36 23 0
-54 37 0
18 -30 0
56 55 0
-81 4 0
28 32 0
63 9 0
84 -60 0
65 -6 0
-27 -49 0
76 16 0
54 1 0
-39 2 0
-47 -78 0
-45 -57 0
-47 62 0
70 12 0
-31 42 0
-29 -69 0
27 52 0
81 -13 0
-37 -44 0
-1 24 0
65 -32 0
