c PROBLEM_090_090_22  vars=90  clausulas=90  k=2
p cnf 90 90
-31 -52 0
-88 32 0
-54 23 0
68 28 0
14 65 0
-74 85 0
42 48 0
-50 -31 0
88 -16 0
15 23 0
-59 -39 0
-12 -36 0
-31 -65 0
2 33 0
-10 -34 0
-29 -10 0
58 36 0
46 86 0
-27 30 0
-23 8 0
-61 -40 0
-17 41 0
43 -16 0
-60 -25 0
-33 -49 0
82 -50 0
42 19 0
-14 -72 0
38 -66 0
-27 -28 0
89 -24 0
-38 -24 0
-58 -57 0
4 44 0
62 -90 0
31 -4 0
-2 -12 0
-88 41 0
-26 -61 0
-45 51 0
-3 -40 0
8 1 0
-39 -77 0
-57 63 0
63 -11 0
82 29 0
-54 -65 0
-46 54 0
-10 28 0
56 -81 0
83 -55 0
77 16 0
-1 -7 0
75 -44 0
4 -78 0
-62 53 0
-2 -42 0
-80 52 0
-18 -59 0
-81 20 0
-54 70 0
-64 45 0
-76 37 0
73 43 0
-78 21 0
-61 46 0
17 5 0
-14 82 0
35 32 0
57 13 0
83 -15 0
-47 43 0
-27 -87 0
-69 43 0
-84 -9 0
71 -49 0
-5 -36 0
25 75 0
-79 -67 0
71 -46 0
-56 51 0
9 -69 0
20 -81 0
-90 -48 0
6 -46 0
-83 -85 0
3 65 0
84 -55 0
-79 -10 0
-22 -33 0
