c PROBLEM_090_090_03  vars=90  clausulas=90  k=2
p cnf 90 90
-63 -86 0
-57 -46 0
82 68 0
71 -24 0
2 -84 0
82 37 0
-3 52 0
-46 36 0
-30 -56 0
70 -58 0
-47 -19 0
-50 -35 0
34 -54 0
83 -22 0
-87 -11 0
49 -28 0
23 -4 0
17 4 0
-39 59 0
-30 -32 0
83 -41 0
-20 80 0
-14 -29 0
-35 88 0
-22 51 0
77 85 0
-53 -27 0
-38 27 0
-24 -66 0
-51 -83 0
-30 -25 0
-31 -72 0
-26 7 0
20 55 0
-46 -25 0
-72 -64 0
4 -6 0
-33 9 0
-20 65 0
67 -41 0
11 1 0
-15 40 0
-36 83 0
-30 -82 0
-86 -12 0
-21 -81 0
-2 -3 0
-3 -17 0
75 32 0
-89 65 0
25 74 0
6 -90 0
45 50 0
71 -73 0
-69 -13 0
50 -84 0
44 -67 0
84 -40 0
-35 -14 0
-35 -44 0
-34 -22 0
37 8 0
53 -25 0
76 -42 0
-15 -80 0
-82 -50 0
16 78 0
39 63 0
9 -60 0
-35 89 0
34 -70 0
-17 43 0
-52 -20 0
-79 -38 0
-18 39 0
1 -46 0
-75 -42 0
62 -20 0
-85 -72 0
65 26 0
-71 -49 0
31 -79 0
-10 24 0
60 48 0
-51 5 0
-67 77 0
-79 -61 0
-32 38 0
50 61 0
76 5 0
