c PROBLEM_090_090_10  vars=90  clausulas=90  k=2
p cnf 90 90
-14 -11 0
-55 38 0
-41 10 0
-53 -45 0
87 -52 0
13 -3 0
-62 73 0
-41 84 0
-29 9 0
-46 9 0
65 48 0
-70 -76 0
30 -75 0
-8 39 0
19 -88 0
-32 20 0
-40 -5 0
39 -8 0
63 -62 0
-8 -19 0
68 16 0
59 47 0
72 -61 0
78 -28 0
6 13 0
18 -79 0
4 -46 0
-82 -17 0
-58 -8 0
68 36 0
7 -68 0
-18 -47 0
3 -17 0
50 -71 0
37 -8 0
24 -14 0
-80 44 0
-89 -57 0
74 -80 0
-84 40 0
-27 -48 0
2 -60 0
-29 64 0
-81 31 0
33 -39 0
-89 -21 0
51 -31 0
-4 5 0
25 35 0
42 89 0
7 -42 0
27 -52 0
49 -87 0
84 -23 0
15 -12 0
-70 81 0
69 -43 0
18 36 0
-57 67 0
-49 59 0
74 86 0
-20 -30 0
-56 -45 0
-59 27 0
90 22 0
-80 -83 0
30 -85 0
-16 -36 0
-54 52 0
81 -27 0
-46 -89 0
38 2 0
56 -75 0
84 12 0
-19 84 0
-76 10 0
86 34 0
83 1 0
48 28 0
-70 -60 0
-69 55 0
-67 -46 0
-77 -66 0
81 23 0
-21 -43 0
-33 -26 0
82 29 0
-43 9 0
16 60 0
-38 59 0
