c PROBLEM_090_090_33  vars=90  clausulas=90  k=2
p cnf 90 90
24 59 0
-61 85 0
-5 -53 0
59 -48 0
-75 -26 0
-89 -23 0
-75 58 0
-88 50 0
-4 -15 0
-63 9 0
80 51 0
-81 -40 0
39 -31 0
56 15 0
30 -79 0
-20 46 0
84 25 0
2 37 0
68 78 0
79 -63 0
-32 10 0
-17 -41 0
28 16 0
40 -57 0
16 10 0
-7 12 0
72 -57 0
-1 -32 0
86 1 0
8 29 0
-4 27 0
37 34 0
75 -89 0
83 20 0
-42 -25 0
-90 68 0
-79 50 0
-86 36 0
6 -52 0
1 -18 0
-48 46 0
54 33 0
-45 82 0
-80 50 0
-4 26 0
-34 -48 0
-81 -29 0
43 24 0
-18 -59 0
31 -40 0
-60 -18 0
-78 -60 0
64 -69 0
-87 2 0
22 32 0
-45 -76 0
54 -86 0
70 -78 0
-38 37 0
-1 -8 0
-13 -71 0
3 90 0
-61 41 0
-67 30 0
-19 65 0
-84 64 0
-21 -49 0
-18 82 0
12 47 0
-39 -74 0
11 18 0
-5 33 0
37 49 0
-29 -21 0
12 -73 0
67 -14 0
-73 -51 0
-70 -31 0
-5 -25 0
44 -40 0
-53 23 0
66 77 0
-76 44 0
-36 66 0
76 50 0
-86 -52 0
-31 55 0
-88 87 0
80 -89 0
35 62 0
