c PROBLEM_090_090_45  vars=90  clausulas=90  k=2
p cnf 90 90
-60 64 0
-58 65 0
78 19 0
-18 69 0
-63 30 0
16 45 0
-39 23 0
40 58 0
41 -49 0
69 60 0
77 42 0
36 -63 0
90 64 0
-90 66 0
-83 46 0
4 38 0
25 49 0
49 -48 0
-8 5 0
-55 -49 0
4 -82 0
-31 -54 0
-75 -22 0
39 -44 0
13 8 0
12 11 0
89 33 0
27 -51 0
-82 -1 0
-20 -24 0
-35 -41 0
-75 -61 0
-30 -68 0
-76 28 0
26 -42 0
-88 27 0
29 70 0
-28 67 0
-59 50 0
21 78 0
65 -3 0
36 -78 0
-56 -37 0
-66 44 0
31 -43 0
-34 68 0
-14 88 0
43 29 0
-32 -19 0
7 -65 0
32 -57 0
-21 -1 0
30 -86 0
-87 -10 0
-9 3 0
-26 88 0
61 9 0
-28 -24 0
-73 -58 0
88 -77 0
9 -22 0
72 -22 0
32 -42 0
-47 -48 0
76 -23 0
90 30 0
64 -21 0
64 -55 0
81 -6 0
-76 -30 0
15 13 0
33 52 0
78 5 0
84 -73 0
-62 -67 0
-2 85 0
53 85 0
29 -39 0
35 88 0
46 55 0
81 -17 0
-74 61 0
29 -62 0
57 -21 0
71 87 0
-66 74 0
3 -32 0
-13 54 0
-60 -80 0
61 -79 0
