c PROBLEM_090_090_31  vars=90  clausulas=90  k=2
p cnf 90 90
50 -39 0
-51 50 0
61 49 0
-44 72 0
-57 43 0
-61 16 0
30 -87 0
-84 -89 0
-6 -86 0
-10 70 0
38 -28 0
33 86 0
74 -19 0
69 22 0
76 -42 0
-11 32 0
61 -89 0
-83 -79 0
-56 -75 0
-62 89 0
7 9 0
-6 65 0
-67 39 0
-1 51 0
65 -59 0
-29 -26 0
-9 52 0
-81 2 0
16 -64 0
35 78 0
55 -70 0
-9 -45 0
-1 90 0
-13 32 0
-78 -37 0
18 -24 0
-16 55 0
53 -41 0
-32 13 0
-60 -46 0
31 -18 0
-4 -37 0
5 44 0
-40 -75 0
10 -41 0
-79 27 0
-79 -32 0
66 -83 0
-77 79 0
16 -34 0
-73 54 0
67 20 0
-3 -47 0
86 -26 0
12 -82 0
-80 84 0
-49 54 0
57 12 0
-43 48 0
-14 58 0
37 -25 0
-38 -62 0
-35 -72 0
3 -85 0
66 36 0
-46 71 0
5 69 0
-3 -38 0
60 78 0
90 52 0
17 -86 0
40 44 0
69 -5 0
-19 -28 0
-39 -18 0
-85 53 0
21 -31 0
26 -31 0
12 11 0
8 56 0
-48 50 0
-88 -60 0
-7 63 0
-68 6 0
78 67 0
-62 -70 0
6 -69 0
-23 -10 0
79 -66 0
49 -15 0
