c PROBLEM_090_090_34  vars=90  clausulas=90  k=2
p cnf 90 90
56 -50 0
-45 65 0
72 -80 0
-21 33 0
72 -53 0
-43 -7 0
-66 -68 0
19 -88 0
-23 72 0
-14 11 0
-13 14 0
42 -69 0
-64 -78 0
-46 26 0
-65 -28 0
-42 15 0
-25 -71 0
48 42 0
-28 -22 0
-4 34 0
76 -22 0
-39 -47 0
59 7 0
56 -81 0
-39 78 0
59 -45 0
-29 57 0
61 -44 0
9 27 0
42 -74 0
40 51 0
32 19 0
78 -11 0
-18 -71 0
-15 40 0
-19 78 0
-85 79 0
47 20 0
-30 48 0
-80 -25 0
-62 39 0
-71 -73 0
44 -35 0
-41 36 0
86 -78 0
22 -18 0
20 -83 0
-87 -75 0
-16 12 0
84 37 0
8 -79 0
-75 -47 0
-52 -58 0
88 -54 0
5 -54 0
-45 -83 0
-60 24 0
-66 -65 0
-76 -59 0
-1 70 0
-63 38 0
24 -44 0
-3 -74 0
29 50 0
-83 58 0
-82 -55 0
77 45 0
-2 -5 0
15 -85 0
9 -38 0
31 23 0
17 -50 0
-90 61 0
-37 65 0
10 -49 0
-64 -69 0
43 -40 0
-89 -28 0
-17 -26 0
6 -84 0
16 -82 0
-73 23 0
25 67 0
52 14 0
-71 -84 0
64 63 0
3 -57 0
-31 -15 0
-62 15 0
-6 -52 0
