c PROBLEM_090_090_08  vars=90  clausulas=90  k=2
p cnf 90 90
46 -36 0
-88 -19 0
15 -61 0
-47 85 0
-53 -31 0
-24 -20 0
-12 -76 0
-40 -75 0
44 -72 0
28 -67 0
22 3 0
-57 -10 0
9 2 0
32 59 0
-15 57 0
71 -62 0
-5 -60 0
5 -28 0
29 -23 0
47 22 0
26 -13 0
-70 -33 0
-22 -72 0
7 77 0
79 -17 0
40 -55 0
19 39 0
52 -83 0
90 69 0
-78 20 0
34 -38 0
65 39 0
58 62 0
-89 -58 0
87 13 0
1 37 0
45 -51 0
64 9 0
-27 -20 0
-41 34 0
41 11 0
-50 -68 0
20 -32 0
-11 87 0
-86 -66 0
-63 -6 0
-43 37 0
47 -1 0
52 3 0
89 -53 0
9 -14 0
49 20 0
-54 -55 0
-75 -1 0
-1 35 0
-4 -21 0
47 -30 0
-82 85 0
68 -40 0
73 42 0
50 88 0
-23 -29 0
-88 -74 0
9 -22 0
-68 -7 0
63 25 0
84 -15 0
34 -8 0
85 -14 0
86 59 0
-16 85 0
-73 41 0
-84 -81 0
30 79 0
-19 -69 0
48 -12 0
17 8 0
-18 -44 0
3 28 0
65 -41 0
86 81 0
-90 11 0
56 -82 0
90 80 0
78 10 0
55 -16 0
78 -9 0
-17 -14 0
24 59 0
47 7 0
