c PROBLEM_090_090_18  vars=90  clausulas=90  k=2
p cnf 90 90
63 -85 0
-43 3 0
6 -39 0
83 -80 0
-65 53 0
-72 23 0
75 30 0
62 35 0
-21 34 0
73 -52 0
-79 33 0
-61 9 0
13 -59 0
38 -7 0
-66 -64 0
-51 -76 0
-46 55 0
24 42 0
89 50 0
-25 30 0
54 -69 0
30 -75 0
74 -10 0
-44 13 0
44 -9 0
-38 -59 0
-22 -41 0
-57 40 0
-3 -50 0
3 -40 0
88 -85 0
-19 -63 0
1 -79 0
-68 39 0
82 32 0
-69 11 0
-32 20 0
2 62 0
-28 48 0
-46 -8 0
-35 -19 0
54 -51 0
-8 2 0
70 -18 0
-67 -87 0
-9 75 0
12 45 0
-19 4 0
62 -77 0
3 -87 0
-90 -72 0
-84 32 0
-53 -29 0
-57 30 0
-9 63 0
22 90 0
-31 -52 0
25 -76 0
81 -84 0
-58 62 0
5 21 0
-12 -27 0
32 -47 0
15 64 0
24 -75 0
77 57 0
-14 -1 0
60 -26 0
17 81 0
-34 -7 0
54 -52 0
-68 -72 0
57 -16 0
-84 -17 0
-71 16 0
53 60 0
-75 54 0
49 52 0
-55 49 0
-18 -86 0
-26 56 0
78 -85 0
15 26 0
-37 -36 0
90 36 0
-80 50 0
-82 -16 0
-84 23 0
-83 67 0
-7 54 0
