c PROBLEM_090_090_40  vars=90  clausulas=90  k=2
p cnf 90 90
-72 16 0
-78 10 0
66 -57 0
-66 8 0
-47 -1 0
-86 -77 0
41 66 0
16 57 0
71 -68 0
80 -52 0
51 -38 0
-24 84 0
-59 73 0
-7 14 0
-18 -26 0
-23 40 0
-79 -47 0
89 75 0
52 -41 0
-67 23 0
20 90 0
14 -30 0
20 -78 0
55 77 0
-90 -25 0
36 -1 0
81 -25 0
-61 -53 0
86 90 0
-47 33 0
70 30 0
-19 15 0
-13 -55 0
26 -37 0
-86 -47 0
45 -21 0
58 -60 0
-60 -6 0
-49 -4 0
48 -40 0
29 34 0
35 38 0
54 63 0
67 27 0
-9 -83 0
49 1 0
-4 -76 0
46 -3 0
-33 -27 0
49 -7 0
62 -39 0
66 69 0
8 -42 0
6 8 0
-88 -74 0
59 85 0
2 -28 0
-13 -6 0
35 43 0
20 58 0
-28 -73 0
-70 30 0
-46 -71 0
50 49 0
82 -58 0
17 -70 0
7 -65 0
-5 -85 0
66 81 0
22 -64 0
21 87 0
87 31 0
-84 15 0
55 -32 0
-11 14 0
-21 20 0
-27 13 0
39 -30 0
83 17 0
44 84 0
-62 -12 0
83 -68 0
9 -7 0
-40 71 0
-18 -61 0
-78 -80 0
-53 65 0
56 74 0
25 72 0
-87 78 0
