c PROBLEM_090_090_35  vars=90  clausulas=90  k=2
p cnf 90 90
-80 23 0
-46 -9 0
17 35 0
6 8 0
-85 88 0
-2 25 0
4 48 0
-83 35 0
67 -6 0
-62 15 0
-88 -28 0
74 -39 0
42 -82 0
3 -23 0
-22 56 0
56 -36 0
69 66 0
-54 70 0
62 -55 0
-52 -77 0
-30 -36 0
-56 34 0
-82 67 0
-8 7 0
74 -11 0
59 -63 0
-23 -57 0
62 -24 0
-25 45 0
57 83 0
-6 51 0
87 -18 0
39 45 0
-86 -71 0
-90 -2 0
-9 -14 0
49 23 0
44 -81 0
-30 13 0
61 -16 0
-81 -34 0
89 31 0
25 84 0
83 -40 0
-85 -19 0
50 48 0
-10 75 0
42 -27 0
1 4 0
-66 -27 0
66 -37 0
55 -4 0
-43 -88 0
-17 -78 0
-73 33 0
-24 87 0
-1 46 0
-32 -31 0
70 52 0
-4 -17 0
3 -59 0
66 -10 0
-23 -62 0
69 -61 0
47 -79 0
-26 -76 0
85 53 0
31 38 0
15 27 0
-2 -68 0
75 52 0
-81 -40 0
6 55 0
-41 -61 0
21 53 0
60 -58 0
8 20 0
76 -65 0
75 -12 0
40 -81 0
5 20 0
85 -29 0
64 65 0
50 -70 0
-43 47 0
-41 -14 0
-49 -63 0
80 41 0
-11 -72 0
-2 -27 0
