c PROBLEM_090_090_17  vars=90  clausulas=90  k=2
p cnf 90 90
-54 -88 0
-60 -45 0
-5 -47 0
6 39 0
14 51 0
-34 -90 0
-2 3 0
75 73 0
-8 64 0
-27 76 0
-46 -20 0
20 22 0
-47 56 0
-52 -65 0
28 -48 0
1 -61 0
79 82 0
-59 -19 0
-61 49 0
-3 -26 0
49 63 0
-38 2 0
81 84 0
23 -88 0
14 6 0
36 38 0
1 -8 0
-13 32 0
6 -16 0
76 82 0
55 89 0
-58 -6 0
75 77 0
-9 -86 0
-54 70 0
43 44 0
51 -82 0
14 -41 0
22 -11 0
58 54 0
67 -74 0
-40 23 0
-53 -11 0
47 19 0
-35 -54 0
-81 -51 0
53 -46 0
32 -64 0
-9 24 0
18 61 0
25 -35 0
-24 -76 0
80 86 0
-45 47 0
30 73 0
27 90 0
83 33 0
15 -4 0
50 -36 0
-29 5 0
83 39 0
-10 9 0
-51 -7 0
44 62 0
-75 -43 0
38 42 0
75 -79 0
-59 -10 0
-10 -51 0
35 -17 0
4 32 0
-62 5 0
-71 -15 0
-60 -57 0
-21 -63 0
68 -50 0
73 8 0
72 30 0
-31 5 0
65 12 0
56 69 0
-67 3 0
-75 -25 0
23 87 0
-78 -17 0
-81 6 0
89 -42 0
84 -37 0
-7 -85 0
66 13 0
