c PROBLEM_090_090_21  vars=90  clausulas=90  k=2
p cnf 90 90
-41 17 0
-35 -23 0
64 -41 0
-27 -22 0
-72 -69 0
-72 -80 0
-13 57 0
-47 -54 0
16 -29 0
7 -49 0
-46 -57 0
-4 23 0
-17 24 0
-26 64 0
9 48 0
-33 -22 0
-12 -40 0
35 -52 0
-10 6 0
29 -12 0
-61 1 0
38 8 0
-53 42 0
-79 84 0
-6 11 0
-88 -26 0
75 -66 0
65 -48 0
18 12 0
-21 32 0
-7 -62 0
57 -68 0
87 74 0
50 15 0
41 54 0
-56 -34 0
-85 3 0
70 28 0
-36 -75 0
-43 24 0
-60 16 0
-51 -42 0
-64 -60 0
-56 -8 0
50 13 0
-20 15 0
-73 -21 0
-63 -43 0
35 -21 0
-55 -5 0
-5 -82 0
-70 -89 0
10 31 0
45 -78 0
66 -80 0
47 67 0
-18 -76 0
-19 75 0
-63 -69 0
-45 18 0
-44 36 0
-29 84 0
75 73 0
30 -21 0
24 -14 0
31 -84 0
-12 83 0
-61 8 0
-61 71 0
-2 76 0
-74 -87 0
84 49 0
-56 66 0
-37 -80 0
27 45 0
-25 22 0
-17 -19 0
32 39 0
-72 28 0
62 6 0
90 -25 0
-33 -59 0
39 90 0
81 -24 0
34 20 0
-10 -6 0
-86 -37 0
-59 3 0
-58 64 0
77 -32 0
