c PROBLEM_090_090_26  vars=90  clausulas=90  k=2
p cnf 90 90
-76 -41 0
19 -21 0
32 -87 0
65 -15 0
86 -44 0
6 29 0
16 -19 0
39 -38 0
-35 40 0
77 26 0
-54 3 0
-70 71 0
-2 -27 0
28 -48 0
14 38 0
74 -62 0
-47 -82 0
61 23 0
-30 52 0
-14 11 0
8 35 0
8 -23 0
-70 20 0
-41 -87 0
-87 5 0
-27 -69 0
-64 9 0
-24 -90 0
14 -8 0
86 -72 0
-64 -83 0
68 -34 0
-26 -30 0
-10 -89 0
81 -73 0
-42 -72 0
-62 -57 0
4 89 0
-65 88 0
-30 -53 0
50 7 0
42 -84 0
-32 -41 0
3 -78 0
60 -77 0
-37 -23 0
25 54 0
-85 63 0
59 66 0
75 -79 0
21 -13 0
-46 55 0
-14 27 0
38 -31 0
13 -52 0
73 -71 0
78 -57 0
-88 -62 0
52 71 0
33 15 0
12 -49 0
-11 -56 0
74 -48 0
-56 8 0
-49 12 0
-54 15 0
-85 -53 0
34 62 0
-49 -38 0
-1 -36 0
71 -61 0
10 -3 0
-18 15 0
-44 87 0
90 64 0
36 51 0
-67 43 0
25 -75 0
2 22 0
-69 74 0
13 -31 0
79 58 0
-54 45 0
-84 37 0
-29 -19 0
-16 55 0
-45 -13 0
40 17 0
-80 -75 0
31 18 0
