c PROBLEM_090_090_09  vars=90  clausulas=90  k=2
p cnf 90 90
22 -75 0
-84 77 0
88 -60 0
31 -32 0
15 17 0
6 -48 0
2 -60 0
-28 -40 0
50 36 0
53 87 0
54 -9 0
-58 38 0
-39 -23 0
61 -26 0
52 -34 0
-49 68 0
-70 -87 0
6 34 0
42 12 0
-46 -4 0
5 64 0
-64 66 0
-26 19 0
-28 33 0
69 -35 0
3 41 0
81 -1 0
-37 81 0
-32 48 0
30 61 0
71 62 0
79 20 0
-83 -48 0
-28 39 0
63 -52 0
-48 44 0
31 -81 0
12 69 0
82 -79 0
-56 -87 0
-29 -55 0
77 29 0
49 67 0
3 79 0
-89 -52 0
-78 -14 0
8 -21 0
10 -88 0
27 -49 0
29 -11 0
-21 59 0
-11 71 0
-15 17 0
11 51 0
64 43 0
-72 12 0
-73 -90 0
-47 -76 0
-43 90 0
29 84 0
34 -48 0
74 -62 0
-13 47 0
42 -1 0
14 66 0
-23 -14 0
-56 51 0
45 -32 0
-8 68 0
-16 13 0
37 -41 0
-18 -65 0
-84 -49 0
-85 -25 0
89 21 0
-6 64 0
57 -7 0
-40 -76 0
-45 -70 0
-21 63 0
88 8 0
27 -30 0
-86 80 0
67 77 0
16 24 0
-2 23 0
-69 -37 0
-18 39 0
75 28 0
63 -29 0
