c PROBLEM_090_090_20  vars=90  clausulas=90  k=2
p cnf 90 90
59 47 0
-48 2 0
-19 78 0
30 -18 0
-36 -68 0
11 -83 0
-14 42 0
88 11 0
44 28 0
-80 -57 0
87 46 0
66 -54 0
-64 41 0
-56 -26 0
-11 -54 0
-33 27 0
-70 -41 0
-82 -54 0
15 -25 0
61 57 0
19 -22 0
-54 42 0
49 72 0
80 -82 0
56 -43 0
35 -4 0
-53 -40 0
18 -52 0
-18 -12 0
39 -48 0
83 -78 0
-28 -25 0
-54 -44 0
50 16 0
74 -76 0
46 -51 0
83 -53 0
10 -1 0
25 50 0
25 -41 0
-6 -10 0
-82 -27 0
-34 20 0
7 -19 0
64 57 0
47 -53 0
-88 -46 0
-3 27 0
52 72 0
-85 13 0
50 -69 0
-73 -79 0
73 26 0
60 -10 0
1 -16 0
-42 -58 0
83 57 0
-23 45 0
51 -19 0
12 85 0
-36 65 0
-31 9 0
15 3 0
90 -77 0
-67 -34 0
66 -46 0
-62 -34 0
37 36 0
-44 25 0
19 50 0
-89 22 0
-81 8 0
77 -21 0
60 -29 0
-58 -24 0
-53 67 0
84 63 0
-75 67 0
-71 -55 0
-32 -17 0
-83 -16 0
29 6 0
-21 -15 0
-5 -9 0
-68 -5 0
-26 75 0
-24 -38 0
57 -44 0
11 -86 0
-27 -44 0
