c PROBLEM_060_060_16  vars=60  clausulas=60  k=2
p cnf 60 60
33 6 0
23 -42 0
-2 -5 0
-14 1 0
16 -3 0
-21 -45 0
40 -7 0
11 -30 0
17 57 0
-12 -30 0
-36 34 0
-52 29 0
17 13 0
-52 9 0
-25 -27 0
33 37 0
-56 15 0
-30 -41 0
50 1 0
10 -27 0
24 27 0
11 1 0
4 -14 0
-42 -54 0
-49 46 0
44 40 0
58 27 0
-7 52 0
24 16 0
-35 6 0
-20 -47 0
29 -60 0
24 59 0
-47 -26 0
-22 -7 0
-59 40 0
51 -10 0
48 -10 0
46 -55 0
-58 -32 0
56 8 0
50 -38 0
11 -34 0
11 -43 0
-28 -18 0
-36 -60 0
19 -55 0
-4 52 0
28 -40 0
48 -14 0
-16 53 0
-22 -4 0
-31 -26 0
-55 -57 0
-33 47 0
55 -44 0
19 39 0
-28 -32 0
32 -27 0
20 -3 0
