c PROBLEM_060_060_11  vars=60  clausulas=60  k=2
p cnf 60 60
4 11 0
5 37 0
-55 46 0
-43 54 0
-26 -56 0
10 -30 0
-34 -35 0
-50 4 0
47 -58 0
25 24 0
8 -49 0
-23 -50 0
6 -55 0
53 14 0
24 -11 0
-8 26 0
33 59 0
57 12 0
-58 -4 0
-55 -53 0
-46 -8 0
-16 -1 0
-1 32 0
-5 45 0
2 -17 0
7 -59 0
29 43 0
-44 -32 0
-45 35 0
-33 -8 0
-38 -1 0
46 8 0
-35 42 0
-21 14 0
46 28 0
19 -57 0
-60 -4 0
58 -28 0
-52 18 0
-32 -49 0
-41 27 0
-18 3 0
-9 -13 0
-38 31 0
40 -39 0
-17 50 0
-51 57 0
39 22 0
-33 43 0
-25 33 0
15 -18 0
-47 28 0
31 -48 0
-7 20 0
-5 1 0
50 -40 0
38 -40 0
12 -36 0
-42 -37 0
-9 7 0
