c PROBLEM_060_060_32  vars=60  clausulas=60  k=2
p cnf 60 60
-49 -16 0
-4 23 0
51 -38 0
-1 47 0
30 -59 0
1 24 0
50 -25 0
14 -54 0
-44 -24 0
5 55 0
-46 -54 0
-28 -39 0
21 51 0
58 -8 0
52 -60 0
37 56 0
5 29 0
48 36 0
-20 28 0
48 -2 0
-27 18 0
27 50 0
-37 36 0
40 55 0
-17 15 0
-27 33 0
-35 27 0
-42 -16 0
12 53 0
22 -7 0
-14 -57 0
-5 45 0
52 60 0
31 16 0
34 -45 0
-53 45 0
-6 27 0
-28 -50 0
26 -40 0
23 11 0
-12 35 0
10 -36 0
-56 37 0
-3 -34 0
-45 41 0
-19 -21 0
-9 45 0
-9 -51 0
46 32 0
-42 46 0
44 36 0
41 54 0
-49 -19 0
-4 -39 0
37 5 0
-8 21 0
13 50 0
-43 23 0
25 58 0
31 -33 0
