c PROBLEM_060_060_22  vars=60  clausulas=60  k=2
p cnf 60 60
-46 27 0
-10 -40 0
-4 -54 0
-33 -9 0
-39 -28 0
52 51 0
58 47 0
-36 -42 0
-37 51 0
-47 56 0
57 15 0
-44 -49 0
30 -59 0
25 50 0
53 -32 0
-43 -25 0
58 -39 0
-32 -29 0
52 -49 0
44 32 0
-55 3 0
60 -48 0
-7 -5 0
-17 1 0
60 -2 0
-27 -38 0
50 -26 0
-52 -6 0
-44 40 0
-60 -2 0
13 59 0
20 -28 0
30 -4 0
16 -23 0
22 -59 0
18 59 0
-53 37 0
-37 -49 0
20 22 0
4 -24 0
42 4 0
12 -4 0
-34 -54 0
-50 44 0
-45 55 0
14 -43 0
-29 -11 0
-19 -14 0
-18 -44 0
21 35 0
3 -8 0
37 16 0
41 6 0
26 -32 0
-15 31 0
4 54 0
34 46 0
13 37 0
-15 31 0
8 47 0
