c PROBLEM_060_060_46  vars=60  clausulas=60  k=2
p cnf 60 60
-26 -50 0
6 46 0
18 12 0
24 20 0
17 -5 0
-25 -46 0
19 48 0
-38 -43 0
3 -1 0
40 -24 0
12 25 0
-39 -30 0
59 -41 0
5 -42 0
32 -23 0
13 -58 0
57 -15 0
44 16 0
-10 -7 0
15 -20 0
12 9 0
-52 -36 0
-50 59 0
-32 -15 0
32 48 0
28 31 0
-28 39 0
-27 34 0
23 -47 0
45 60 0
58 -50 0
-59 21 0
35 -37 0
-58 -6 0
-31 -51 0
-45 -55 0
29 4 0
27 -22 0
-35 25 0
-18 42 0
-23 -55 0
35 5 0
-28 -8 0
54 -18 0
41 -46 0
-1 -14 0
-49 -32 0
60 48 0
-6 30 0
11 14 0
38 -2 0
8 -11 0
55 -33 0
56 -54 0
-42 11 0
-22 -2 0
-38 -19 0
-27 -54 0
53 -32 0
49 14 0
