c PROBLEM_060_060_25  vars=60  clausulas=60  k=2
p cnf 60 60
41 -24 0
16 -48 0
-60 7 0
-45 -39 0
-58 6 0
-33 -34 0
-2 37 0
44 28 0
-22 -9 0
-12 -35 0
12 -56 0
-54 7 0
-30 26 0
-13 21 0
5 59 0
27 22 0
25 60 0
-47 -11 0
-18 4 0
-33 18 0
-46 14 0
-43 -55 0
-10 40 0
25 -44 0
56 9 0
-48 -8 0
51 37 0
-37 53 0
-42 -45 0
15 9 0
29 -36 0
6 -5 0
-11 45 0
20 43 0
59 28 0
-14 46 0
-15 44 0
28 19 0
-38 -30 0
17 -57 0
27 -24 0
-44 3 0
-38 -1 0
23 20 0
-8 33 0
-8 49 0
-22 55 0
-21 24 0
-40 39 0
29 37 0
58 -8 0
-59 -32 0
9 -28 0
-31 -34 0
31 20 0
-40 2 0
-37 -52 0
-5 11 0
50 -32 0
49 -11 0
