c PROBLEM_060_060_13  vars=60  clausulas=60  k=2
p cnf 60 60
-41 -36 0
-60 -22 0
-23 7 0
-17 46 0
26 24 0
53 -8 0
-6 57 0
-46 32 0
-33 20 0
-44 -42 0
-32 15 0
-40 -36 0
-25 37 0
-51 -8 0
50 -39 0
58 -39 0
-56 -19 0
-12 -9 0
-13 -27 0
38 -13 0
-31 -15 0
-24 36 0
36 -50 0
-33 -50 0
13 -5 0
21 28 0
-59 -30 0
1 20 0
-37 11 0
8 -30 0
4 -49 0
16 35 0
34 -6 0
14 -40 0
-11 -44 0
16 27 0
-54 15 0
-9 -7 0
-16 45 0
26 30 0
24 -57 0
-52 -34 0
29 -35 0
13 27 0
48 -24 0
48 39 0
52 19 0
58 26 0
-44 17 0
-42 -46 0
-10 -27 0
-2 -43 0
-26 3 0
19 -55 0
29 -39 0
39 -47 0
38 -21 0
43 14 0
-12 -47 0
3 -18 0
