c PROBLEM_060_060_50  vars=60  clausulas=60  k=2
p cnf 60 60
22 -10 0
-12 27 0
5 47 0
12 49 0
7 -57 0
54 -16 0
-15 16 0
3 21 0
5 13 0
-49 17 0
-30 -3 0
-48 -51 0
-37 -11 0
-60 17 0
18 46 0
21 -50 0
-43 -52 0
46 -26 0
-58 37 0
58 -24 0
-56 40 0
56 -2 0
-49 -4 0
24 -36 0
-54 38 0
-35 14 0
42 -13 0
41 -14 0
-23 -59 0
-43 27 0
9 48 0
31 35 0
32 7 0
-58 -54 0
8 27 0
-14 -8 0
-34 -43 0
5 48 0
-53 51 0
-28 38 0
-36 54 0
29 1 0
18 29 0
-39 47 0
-34 55 0
25 5 0
-31 -36 0
29 32 0
-4 -45 0
13 -20 0
45 47 0
-17 60 0
44 50 0
11 45 0
25 -15 0
-19 -6 0
-60 22 0
-42 20 0
33 -32 0
30 -11 0
