c PROBLEM_060_060_35  vars=60  clausulas=60  k=2
p cnf 60 60
25 -53 0
60 -8 0
-52 42 0
5 -34 0
27 18 0
-22 -19 0
20 -36 0
-18 -32 0
41 -3 0
-42 -1 0
18 -20 0
-59 35 0
-39 29 0
16 -55 0
57 -47 0
-58 4 0
18 -10 0
31 -32 0
-9 49 0
-54 -48 0
-46 47 0
-28 -17 0
-34 35 0
-5 6 0
1 21 0
-26 36 0
-43 -20 0
38 60 0
-6 12 0
-18 49 0
-44 -7 0
33 59 0
47 -26 0
1 -24 0
-42 60 0
-41 -37 0
38 -9 0
13 -23 0
-30 55 0
17 -38 0
-28 2 0
-15 50 0
8 -38 0
-53 40 0
35 -54 0
53 57 0
-56 -43 0
11 -39 0
-2 55 0
-34 51 0
-38 -5 0
8 48 0
-3 44 0
-14 -9 0
-47 31 0
45 -43 0
53 -51 0
30 31 0
-21 39 0
-25 23 0
