c PROBLEM_060_060_26  vars=60  clausulas=60  k=2
p cnf 60 60
-8 51 0
-8 29 0
-35 -3 0
44 17 0
41 -53 0
35 48 0
2 30 0
-12 -3 0
-33 -26 0
-60 -47 0
-35 -12 0
-13 -54 0
-44 34 0
31 32 0
36 20 0
7 -58 0
15 50 0
4 -23 0
9 -38 0
6 -37 0
-56 5 0
-14 28 0
52 2 0
33 -40 0
23 -35 0
58 -47 0
-30 3 0
-54 -32 0
27 -40 0
-60 26 0
-37 10 0
-20 -46 0
44 -19 0
44 3 0
45 37 0
-9 33 0
20 5 0
22 -31 0
-21 42 0
-18 7 0
5 16 0
-42 -22 0
43 60 0
49 24 0
-45 -46 0
-53 55 0
-45 -37 0
25 23 0
56 -39 0
-11 -28 0
-50 11 0
-1 16 0
-60 -42 0
30 19 0
-55 12 0
32 1 0
2 -31 0
-25 -51 0
-19 -59 0
-57 52 0
