c PROBLEM_060_060_43  vars=60  clausulas=60  k=2
p cnf 60 60
3 -9 0
-5 -1 0
50 23 0
-7 11 0
-22 -48 0
52 -3 0
27 -13 0
4 -40 0
-12 41 0
60 35 0
-17 45 0
-44 -19 0
-41 42 0
58 38 0
50 -38 0
-9 12 0
-46 -43 0
-14 -17 0
31 25 0
-47 -51 0
17 19 0
40 31 0
57 21 0
-33 -5 0
-8 -39 0
-54 7 0
-20 -28 0
-21 45 0
38 29 0
-14 -24 0
53 -37 0
-2 5 0
59 -16 0
-18 -10 0
48 52 0
8 39 0
57 14 0
6 36 0
52 -32 0
-26 29 0
28 -4 0
10 38 0
-58 -12 0
-30 10 0
40 9 0
-34 -46 0
-17 -50 0
60 -36 0
60 2 0
4 35 0
55 -36 0
-11 49 0
-22 -32 0
-15 -25 0
-8 -12 0
-56 42 0
-7 14 0
47 22 0
28 -27 0
29 17 0
