c PROBLEM_060_060_36  vars=60  clausulas=60  k=2
p cnf 60 60
50 2 0
-11 -23 0
5 -44 0
37 -17 0
53 -44 0
26 17 0
-43 -53 0
36 -39 0
-25 49 0
-27 -13 0
8 1 0
-32 46 0
7 54 0
-56 55 0
-35 -41 0
-26 5 0
56 57 0
13 3 0
-25 20 0
2 -34 0
4 -30 0
52 41 0
28 -9 0
7 -6 0
-4 29 0
-25 31 0
-24 -50 0
-41 -55 0
45 42 0
-60 27 0
-19 -47 0
-57 -58 0
-3 -27 0
-40 -10 0
36 10 0
58 15 0
26 -54 0
-47 53 0
37 -21 0
-34 22 0
54 -16 0
33 -8 0
59 -12 0
-51 35 0
-13 21 0
18 22 0
4 32 0
-32 54 0
21 22 0
-58 19 0
23 48 0
31 48 0
31 36 0
-2 14 0
8 2 0
-30 39 0
-23 -57 0
-7 1 0
-38 7 0
8 -28 0
