c PROBLEM_060_060_24  vars=60  clausulas=60  k=2
p cnf 60 60
-18 44 0
25 -36 0
-55 48 0
-47 56 0
8 -33 0
-18 35 0
-19 -7 0
-12 8 0
5 39 0
-25 -57 0
-49 -17 0
-10 -4 0
-57 -34 0
11 -7 0
-14 -36 0
32 -52 0
46 44 0
15 -58 0
9 34 0
-32 60 0
-51 -14 0
-45 -4 0
-53 5 0
-14 -58 0
-27 39 0
-30 -56 0
38 32 0
-48 -40 0
57 -3 0
43 1 0
19 55 0
9 46 0
-48 -38 0
38 -43 0
-54 11 0
21 -20 0
-53 -31 0
-1 -29 0
-37 24 0
-23 -29 0
-22 20 0
-16 35 0
5 -15 0
-14 57 0
48 47 0
6 21 0
-49 13 0
-41 -26 0
-16 -23 0
-4 -54 0
6 28 0
-16 40 0
-2 30 0
41 -42 0
-59 -56 0
11 -29 0
25 -38 0
25 50 0
-27 31 0
37 43 0
