c PROBLEM_060_060_28  vars=60  clausulas=60  k=2
p cnf 60 60
-25 48 0
30 55 0
-49 -22 0
36 27 0
-24 47 0
44 -4 0
-27 -7 0
-28 21 0
-42 45 0
-43 -50 0
16 17 0
6 2 0
-50 37 0
-41 19 0
44 -23 0
39 59 0
-5 -10 0
-46 -57 0
9 -35 0
17 -30 0
-15 -43 0
-20 -33 0
58 -43 0
-6 -28 0
-53 -12 0
-41 18 0
-19 40 0
-31 38 0
-8 -60 0
-18 16 0
51 34 0
25 -21 0
56 4 0
26 58 0
-14 -32 0
-57 5 0
-14 -12 0
-9 34 0
38 53 0
-6 52 0
42 -15 0
55 1 0
-27 -11 0
45 -29 0
-2 37 0
3 -23 0
-8 -54 0
3 -16 0
37 -20 0
-60 -46 0
-37 52 0
32 41 0
-38 -22 0
-33 49 0
13 28 0
44 -7 0
6 12 0
20 15 0
33 -58 0
54 -22 0
