c PROBLEM_060_060_42  vars=60  clausulas=60  k=2
p cnf 60 60
56 -34 0
4 15 0
-35 1 0
-11 -54 0
-57 30 0
33 26 0
-58 -35 0
-45 -14 0
-46 2 0
39 51 0
49 30 0
10 -16 0
39 -45 0
30 -16 0
-30 -41 0
-8 -48 0
45 -17 0
55 52 0
-11 -12 0
31 20 0
-53 38 0
-58 36 0
-23 50 0
-46 38 0
-35 -41 0
42 -23 0
32 -12 0
52 23 0
19 -41 0
-37 -36 0
-57 10 0
43 51 0
52 -54 0
34 -13 0
-5 -54 0
24 -41 0
-48 -6 0
-21 -44 0
-48 37 0
22 -15 0
-36 -27 0
-1 24 0
-49 -18 0
-18 -14 0
60 20 0
-24 -26 0
5 60 0
40 -41 0
-50 6 0
59 29 0
46 -47 0
-32 30 0
-9 47 0
-13 33 0
-43 -49 0
28 -60 0
-44 -53 0
-25 40 0
-8 7 0
-17 3 0
