c PROBLEM_060_060_04  vars=60  clausulas=60  k=2
p cnf 60 60
-25 5 0
10 56 0
-38 54 0
30 -26 0
-15 34 0
-6 56 0
-20 -3 0
20 -47 0
-58 -25 0
40 19 0
52 7 0
-39 -51 0
1 -2 0
25 -60 0
35 44 0
-23 38 0
42 -38 0
59 35 0
-35 -31 0
-22 -4 0
-11 -45 0
-41 35 0
-42 -3 0
-28 -29 0
-57 54 0
13 -29 0
-49 -51 0
57 -55 0
4 58 0
24 -36 0
-50 -48 0
33 -34 0
-28 5 0
-33 -50 0
35 57 0
-48 56 0
37 25 0
57 59 0
-18 47 0
21 -30 0
-15 -54 0
-41 -17 0
9 -19 0
53 -13 0
-39 18 0
39 -25 0
31 3 0
16 23 0
-31 9 0
10 27 0
51 -48 0
-43 -5 0
17 -53 0
27 9 0
-8 50 0
10 49 0
46 12 0
1 -14 0
17 9 0
-22 -32 0
