c PROBLEM_030_090_29  vars=30  clausulas=90  k=2
p cnf 30 90
21 -1 0
12 26 0
6 22 0
-30 -4 0
16 -29 0
24 -27 0
24 -6 0
-26 -13 0
12 13 0
-19 -3 0
3 9 0
28 30 0
28 24 0
28 30 0
15 23 0
-29 -13 0
26 4 0
11 -4 0
19 -18 0
-29 23 0
-16 21 0
17 -3 0
-28 2 0
15 8 0
8 20 0
14 12 0
-8 28 0
-13 -1 0
11 -29 0
-29 12 0
1 24 0
-13 -2 0
-18 -12 0
-26 -9 0
-17 16 0
-10 14 0
-15 -24 0
20 24 0
14 24 0
-8 16 0
17 -28 0
27 -24 0
-28 9 0
-11 -27 0
-6 -27 0
-4 26 0
9 11 0
1 15 0
-6 -18 0
-2 9 0
-2 30 0
1 -11 0
-14 15 0
-11 14 0
-30 20 0
-23 -21 0
-22 1 0
14 20 0
-16 20 0
10 -16 0
3 25 0
-15 -21 0
16 28 0
18 13 0
29 -6 0
27 29 0
16 -26 0
7 5 0
-17 4 0
-17 -15 0
20 28 0
-15 -5 0
6 14 0
13 -8 0
-25 10 0
-9 -8 0
-11 -8 0
25 15 0
17 -6 0
7 -15 0
14 13 0
13 27 0
-4 -2 0
7 4 0
-16 9 0
-11 13 0
2 -3 0
-16 -23 0
-4 -19 0
14 21 0
