c PROBLEM_030_090_03  vars=30  clausulas=90  k=2
p cnf 30 90
-17 -28 0
12 -8 0
-2 7 0
-8 11 0
17 4 0
-22 -15 0
12 30 0
19 -12 0
-13 18 0
-16 21 0
12 -22 0
-27 -13 0
11 -17 0
13 -15 0
2 -29 0
-18 9 0
-9 28 0
-22 -12 0
-4 -27 0
20 26 0
19 -20 0
9 -2 0
20 30 0
25 28 0
11 19 0
-20 5 0
-16 -21 0
1 9 0
-22 27 0
6 -1 0
22 23 0
-18 -15 0
27 -13 0
6 12 0
14 -22 0
5 17 0
10 8 0
21 -14 0
21 10 0
-18 -10 0
23 12 0
-22 28 0
28 -9 0
7 -24 0
18 -25 0
-19 27 0
24 10 0
5 -24 0
-29 -22 0
-26 -4 0
-4 8 0
20 -12 0
-30 29 0
-25 -4 0
-24 -5 0
26 21 0
-23 -26 0
-5 -16 0
1 -4 0
-14 -20 0
-4 -11 0
14 -22 0
-18 10 0
13 7 0
8 12 0
-7 -8 0
-13 -28 0
18 -12 0
-27 8 0
3 13 0
25 23 0
-22 -13 0
-19 30 0
-23 11 0
4 7 0
-29 -25 0
-20 7 0
18 24 0
13 17 0
13 18 0
-15 26 0
25 -13 0
23 21 0
7 -23 0
21 -26 0
25 -3 0
-4 -18 0
20 -28 0
-5 -4 0
-5 26 0
