c PROBLEM_030_090_01  vars=30  clausulas=90  k=2
p cnf 30 90
-7 -3 0
21 -16 0
21 14 0
15 -26 0
-20 -16 0
21 16 0
-23 -7 0
-20 -11 0
3 12 0
10 -28 0
24 13 0
-27 -4 0
6 15 0
-10 -29 0
23 -19 0
-28 -13 0
13 -7 0
23 -5 0
-20 24 0
20 -26 0
30 1 0
29 -14 0
29 -23 0
-1 -3 0
-27 14 0
18 29 0
-17 -20 0
-17 -22 0
27 -24 0
-14 -25 0
1 9 0
5 -3 0
10 -14 0
-4 14 0
23 2 0
28 29 0
-5 -11 0
-13 16 0
24 18 0
-1 -18 0
-1 -5 0
17 12 0
25 8 0
6 -10 0
23 21 0
-24 6 0
-12 -27 0
10 -9 0
23 30 0
5 9 0
-28 -2 0
-1 -21 0
-5 26 0
19 14 0
-20 -1 0
-5 -22 0
14 -20 0
-4 -17 0
12 4 0
-3 11 0
26 -16 0
18 -23 0
1 28 0
-21 27 0
-13 27 0
-27 -18 0
26 -9 0
-9 6 0
-11 -16 0
-25 4 0
-27 8 0
29 22 0
-22 -24 0
6 7 0
19 4 0
-24 -9 0
-30 -1 0
-25 -13 0
-28 -24 0
15 -22 0
-24 -17 0
11 19 0
-28 11 0
23 -12 0
-21 4 0
3 -1 0
-21 -26 0
20 15 0
-7 9 0
29 6 0
