c PROBLEM_030_090_12  vars=30  clausulas=90  k=2
p cnf 30 90
-8 12 0
-26 -22 0
24 -8 0
26 -28 0
-7 -14 0
19 -18 0
22 -5 0
-14 21 0
-18 -6 0
-14 12 0
8 24 0
-24 -26 0
-29 9 0
-30 4 0
-20 -22 0
-20 -22 0
26 18 0
-16 -15 0
20 -9 0
-28 -11 0
4 -5 0
-1 -29 0
-5 6 0
-17 15 0
15 19 0
-11 14 0
21 -10 0
-5 27 0
-16 7 0
17 -25 0
12 -6 0
-11 23 0
15 -17 0
-21 -4 0
-29 -10 0
14 -30 0
20 8 0
-27 -14 0
-27 -7 0
-19 8 0
-13 10 0
-30 -6 0
-6 -25 0
15 12 0
-14 -1 0
-27 -9 0
14 29 0
15 10 0
-5 -15 0
-7 -26 0
24 18 0
-18 1 0
13 -10 0
3 12 0
-29 27 0
-1 -17 0
23 8 0
18 -12 0
-5 -19 0
-13 -28 0
-22 15 0
12 2 0
16 21 0
27 -9 0
-28 -25 0
-21 14 0
-13 29 0
-26 5 0
9 14 0
-15 19 0
13 29 0
-23 -21 0
1 -23 0
20 -5 0
1 20 0
-3 -6 0
27 -16 0
25 22 0
2 -22 0
-29 -12 0
-9 19 0
19 -12 0
13 -9 0
-14 4 0
-8 22 0
-11 -7 0
22 -2 0
22 -12 0
-21 10 0
3 8 0
