c PROBLEM_030_090_39  vars=30  clausulas=90  k=2
p cnf 30 90
-1 -16 0
-16 -1 0
-17 24 0
-14 8 0
-29 17 0
15 -16 0
18 29 0
-16 9 0
13 15 0
-13 30 0
-30 5 0
8 -27 0
-11 29 0
20 4 0
7 -1 0
-2 11 0
8 30 0
13 -2 0
17 15 0
-23 -24 0
3 -15 0
-18 23 0
-20 4 0
-30 -19 0
30 25 0
-28 19 0
29 -5 0
15 6 0
-2 11 0
6 16 0
-26 -20 0
20 -10 0
-28 18 0
26 -17 0
10 24 0
28 -15 0
11 21 0
20 -2 0
9 -26 0
14 -29 0
-20 29 0
-19 -30 0
-4 26 0
-22 23 0
23 2 0
24 -16 0
14 -28 0
-30 5 0
12 26 0
-25 19 0
-6 5 0
12 -22 0
-14 -30 0
-1 2 0
-25 9 0
30 -17 0
-22 12 0
28 -20 0
10 -14 0
-14 28 0
-17 -9 0
-13 -11 0
14 -11 0
4 -1 0
14 11 0
2 3 0
24 -8 0
7 -22 0
15 -14 0
-15 20 0
10 -3 0
20 -5 0
-9 -20 0
28 -1 0
-3 -12 0
-11 -26 0
-28 10 0
5 19 0
19 -28 0
-25 -7 0
19 -15 0
-9 25 0
24 -28 0
-20 -26 0
-15 -7 0
-4 17 0
28 -19 0
-23 -6 0
5 28 0
-13 -21 0
