c PROBLEM_030_090_09  vars=30  clausulas=90  k=2
p cnf 30 90
-9 -30 0
-21 23 0
-7 -29 0
-4 -28 0
8 10 0
6 3 0
28 16 0
-3 22 0
19 3 0
-29 2 0
16 7 0
-14 23 0
19 12 0
9 16 0
-28 18 0
6 -27 0
2 -3 0
14 -23 0
26 -28 0
25 18 0
26 -6 0
2 17 0
12 29 0
-18 17 0
-4 2 0
2 3 0
23 2 0
14 5 0
-23 -11 0
-14 -13 0
29 -24 0
2 -20 0
6 10 0
8 -4 0
-16 -11 0
2 -24 0
18 21 0
-17 -22 0
-28 -24 0
-13 28 0
-13 23 0
21 -14 0
5 12 0
23 17 0
-2 29 0
-2 -19 0
-8 -5 0
-18 -26 0
-13 3 0
24 -26 0
-5 11 0
-2 15 0
26 -28 0
6 4 0
-3 2 0
18 -15 0
-28 18 0
28 26 0
-18 3 0
12 20 0
-21 -15 0
30 19 0
10 -12 0
17 30 0
-18 -26 0
-7 -2 0
-18 -12 0
30 -27 0
1 -3 0
-19 24 0
28 -16 0
-27 1 0
17 -9 0
24 23 0
-19 3 0
-21 -30 0
15 -1 0
8 27 0
8 -24 0
-22 15 0
12 -28 0
-12 -1 0
14 9 0
-16 -17 0
-8 -15 0
-20 3 0
-15 21 0
-22 15 0
-17 -5 0
-1 -25 0
