c PROBLEM_030_090_11  vars=30  clausulas=90  k=2
p cnf 30 90
23 22 0
-12 -26 0
-19 -23 0
23 8 0
-9 -19 0
1 -24 0
-6 -22 0
-6 -13 0
-24 -16 0
-17 23 0
-26 10 0
-5 -20 0
-7 -8 0
1 4 0
-22 15 0
16 -8 0
-10 30 0
8 -23 0
-27 -2 0
2 -16 0
-24 12 0
-17 27 0
14 28 0
-16 -13 0
-15 -17 0
-5 20 0
-28 27 0
5 15 0
19 -22 0
7 2 0
-17 3 0
-29 15 0
-22 26 0
8 -16 0
10 28 0
-3 17 0
18 28 0
22 -17 0
12 -9 0
-17 22 0
-25 -23 0
13 -4 0
10 29 0
-15 -2 0
-30 -20 0
13 4 0
-29 -13 0
-6 25 0
-4 2 0
-25 -5 0
-3 28 0
-11 9 0
-22 -17 0
29 19 0
4 -28 0
15 -12 0
-19 -21 0
8 9 0
27 -30 0
-3 -24 0
2 26 0
-18 -7 0
28 21 0
22 -1 0
-12 5 0
-7 -2 0
-2 29 0
3 -25 0
-6 -15 0
27 20 0
-22 12 0
-6 27 0
-28 12 0
-16 -28 0
1 -27 0
-30 -13 0
-19 17 0
20 16 0
26 -11 0
-3 10 0
21 -30 0
4 24 0
3 -15 0
-12 4 0
-4 -25 0
2 -29 0
-28 20 0
-6 -27 0
-11 4 0
3 9 0
