c PROBLEM_030_090_50  vars=30  clausulas=90  k=2
p cnf 30 90
13 -12 0
-25 -7 0
-22 6 0
1 -21 0
-29 6 0
-24 -18 0
26 -13 0
18 10 0
-24 22 0
-28 -4 0
2 -8 0
-16 12 0
-20 -15 0
-24 -19 0
2 23 0
16 11 0
-17 6 0
23 3 0
5 21 0
12 5 0
-25 8 0
26 9 0
-9 4 0
-2 15 0
-23 14 0
-9 7 0
-15 19 0
11 2 0
-29 21 0
29 -19 0
-23 -17 0
30 19 0
-12 3 0
12 -1 0
6 -17 0
-23 -7 0
-10 14 0
-19 30 0
-15 -24 0
4 22 0
-13 -9 0
-16 15 0
10 -13 0
3 -8 0
4 -26 0
10 13 0
-16 23 0
5 28 0
21 1 0
-21 -24 0
-4 -8 0
26 -7 0
-29 -10 0
23 -15 0
-7 -23 0
24 -25 0
-1 30 0
-20 2 0
-23 -29 0
-3 12 0
-11 12 0
-29 -30 0
14 7 0
-20 -18 0
20 -27 0
10 -12 0
5 6 0
3 -27 0
21 -3 0
12 4 0
7 4 0
-11 -19 0
-29 -30 0
17 -29 0
-15 -27 0
3 19 0
27 1 0
-30 26 0
-23 20 0
1 -2 0
8 -16 0
-27 12 0
10 15 0
-30 -6 0
15 25 0
19 16 0
29 24 0
9 -18 0
-1 26 0
-15 28 0
