c PROBLEM_030_090_31  vars=30  clausulas=90  k=2
p cnf 30 90
-15 12 0
12 -8 0
10 -19 0
14 -12 0
-11 -9 0
-10 -13 0
-25 26 0
30 -18 0
-4 19 0
25 -9 0
19 -29 0
-13 6 0
-5 -28 0
14 -23 0
-29 -6 0
10 22 0
14 18 0
-19 17 0
13 6 0
-5 18 0
-8 -16 0
-28 14 0
-1 15 0
10 -22 0
8 17 0
14 -17 0
15 27 0
-25 -29 0
-4 -2 0
-7 -14 0
10 3 0
-16 -23 0
30 -25 0
1 21 0
23 25 0
-15 -2 0
-7 22 0
1 4 0
7 10 0
-3 -24 0
-29 -8 0
2 -16 0
4 -8 0
-23 -14 0
-28 -13 0
-3 22 0
6 2 0
2 17 0
-16 3 0
16 25 0
30 2 0
-14 -3 0
17 20 0
26 15 0
-12 10 0
8 -1 0
6 -4 0
9 24 0
22 -15 0
10 -17 0
10 -4 0
-4 -26 0
20 16 0
21 -23 0
-25 -30 0
7 -6 0
15 -1 0
-13 -22 0
-15 -20 0
-28 -11 0
-30 -23 0
25 -9 0
14 29 0
-24 21 0
7 -30 0
27 17 0
26 -28 0
-27 -19 0
-27 4 0
-15 2 0
30 -9 0
-5 -8 0
-12 -24 0
-23 14 0
-27 -9 0
18 10 0
-21 -11 0
-7 -13 0
1 -18 0
-3 -15 0
