c PROBLEM_030_090_46  vars=30  clausulas=90  k=2
p cnf 30 90
21 19 0
-26 -2 0
-16 -24 0
-19 4 0
-3 9 0
-24 -6 0
14 13 0
-7 -24 0
15 -27 0
-7 -20 0
28 12 0
-15 16 0
-8 -1 0
-29 5 0
-29 -26 0
-21 -18 0
-26 -15 0
-6 29 0
26 -17 0
-24 -3 0
-29 5 0
-16 -29 0
-12 -6 0
10 12 0
25 22 0
-10 11 0
7 2 0
-9 -8 0
30 -24 0
-9 10 0
2 14 0
17 4 0
-23 -25 0
18 6 0
4 -14 0
-26 -10 0
-4 -27 0
-3 5 0
3 28 0
21 20 0
14 17 0
-24 -19 0
10 -22 0
30 28 0
27 -20 0
-8 -27 0
-2 11 0
6 11 0
17 -19 0
-15 18 0
20 -14 0
-24 -20 0
20 -2 0
20 -22 0
7 -30 0
-28 7 0
-8 -6 0
5 -15 0
14 23 0
26 -25 0
28 10 0
-28 14 0
-10 -25 0
15 29 0
-8 -21 0
-3 24 0
-22 13 0
12 25 0
-21 -1 0
18 -14 0
-30 -5 0
-2 -16 0
29 -30 0
17 27 0
13 -14 0
21 23 0
22 -11 0
-26 -1 0
-18 6 0
24 -30 0
-10 -16 0
22 11 0
30 -23 0
-8 -1 0
-10 -17 0
11 7 0
-15 17 0
-21 25 0
-12 -7 0
18 -16 0
