c PROBLEM_030_090_22  vars=30  clausulas=90  k=2
p cnf 30 90
12 -29 0
-17 -12 0
-25 3 0
-11 -29 0
29 9 0
-5 9 0
20 26 0
-18 -9 0
28 8 0
-15 -8 0
-14 6 0
-20 2 0
-13 3 0
-7 25 0
-29 -30 0
-16 28 0
10 1 0
-24 7 0
-6 21 0
-17 -3 0
-19 -3 0
-13 1 0
16 -7 0
-8 -10 0
6 -15 0
-28 -29 0
-23 9 0
3 28 0
24 17 0
16 -1 0
20 -6 0
-6 21 0
14 26 0
-18 -9 0
15 28 0
-4 15 0
23 -9 0
25 13 0
2 -28 0
-13 -11 0
-7 15 0
13 -10 0
3 -22 0
22 24 0
7 25 0
-10 28 0
-20 -6 0
4 16 0
-16 -9 0
1 -13 0
15 4 0
-24 6 0
-7 14 0
2 -7 0
-21 -27 0
-26 -18 0
-12 -4 0
-10 2 0
24 20 0
11 -28 0
5 26 0
-6 9 0
19 -21 0
-20 23 0
14 -26 0
18 19 0
8 21 0
11 21 0
-1 12 0
-20 7 0
-29 22 0
-7 -6 0
27 24 0
27 -20 0
-19 -21 0
30 -7 0
23 -21 0
-4 -8 0
21 25 0
-2 15 0
-28 -15 0
-29 18 0
29 19 0
5 13 0
-2 18 0
9 16 0
-11 -10 0
-30 -13 0
-27 -16 0
7 -9 0
