c PROBLEM_030_090_32  vars=30  clausulas=90  k=2
p cnf 30 90
14 -12 0
22 21 0
-17 20 0
-6 -19 0
7 6 0
-22 27 0
-12 -7 0
26 -4 0
13 30 0
7 16 0
15 10 0
-29 28 0
22 21 0
18 20 0
16 10 0
2 -9 0
8 -12 0
9 23 0
-14 20 0
-6 -14 0
-23 -8 0
-24 -1 0
29 10 0
4 16 0
-15 28 0
-26 -12 0
-6 15 0
26 1 0
10 -15 0
-23 -17 0
26 -13 0
20 5 0
-10 17 0
20 2 0
-27 -17 0
13 26 0
-13 12 0
-2 -26 0
-15 27 0
-18 2 0
4 -22 0
24 -16 0
-16 -8 0
30 -28 0
-7 -29 0
15 25 0
-23 -9 0
-26 -6 0
-21 2 0
-21 13 0
-28 26 0
1 -25 0
24 20 0
-23 -10 0
14 29 0
-16 -30 0
-12 -27 0
-20 -17 0
23 -10 0
-28 -4 0
-8 -22 0
-25 -21 0
13 -15 0
17 8 0
22 1 0
-28 23 0
22 -25 0
11 3 0
-11 5 0
14 13 0
13 12 0
-15 -3 0
11 24 0
-29 24 0
16 -20 0
-18 -8 0
-10 28 0
16 -7 0
30 27 0
24 28 0
2 -4 0
-23 -11 0
13 -27 0
13 -19 0
9 25 0
-4 14 0
2 -30 0
2 11 0
27 18 0
-27 -8 0
