c PROBLEM_030_090_36  vars=30  clausulas=90  k=2
p cnf 30 90
20 10 0
26 1 0
-11 -19 0
-2 -9 0
19 22 0
2 6 0
1 25 0
-24 30 0
13 -26 0
-4 -25 0
11 -22 0
-12 -14 0
13 -19 0
13 16 0
-21 24 0
30 -17 0
22 23 0
-16 11 0
28 15 0
-3 19 0
1 30 0
-29 -11 0
-7 -21 0
29 14 0
29 -7 0
14 12 0
26 -16 0
-12 10 0
-17 20 0
16 -7 0
26 5 0
29 14 0
10 -7 0
4 1 0
-27 -1 0
-10 -20 0
1 -14 0
-24 15 0
9 -29 0
4 -27 0
-4 11 0
-14 27 0
9 -4 0
9 27 0
-9 29 0
5 11 0
3 -1 0
29 -1 0
29 -23 0
-20 15 0
30 21 0
21 26 0
-6 -17 0
-10 -11 0
-7 23 0
25 26 0
15 -28 0
14 7 0
4 15 0
-29 -23 0
-1 -27 0
22 4 0
-3 -1 0
-23 4 0
-28 11 0
-15 -23 0
-12 -11 0
-12 18 0
-19 -23 0
-2 -26 0
19 -11 0
-8 -11 0
4 -18 0
-17 -16 0
30 -24 0
-3 -22 0
-25 27 0
4 -11 0
-3 -25 0
-19 -6 0
12 -29 0
9 -13 0
-18 -19 0
-23 27 0
-17 -28 0
23 17 0
-29 3 0
6 -19 0
3 7 0
14 25 0
