c PROBLEM_030_090_44  vars=30  clausulas=90  k=2
p cnf 30 90
9 30 0
6 7 0
23 25 0
-3 11 0
27 9 0
-4 25 0
-4 -15 0
-16 27 0
27 -25 0
-1 11 0
-5 -16 0
-30 12 0
-13 -9 0
-29 22 0
-26 4 0
18 -2 0
22 -1 0
6 -16 0
27 -2 0
-9 24 0
29 25 0
-8 -15 0
-26 19 0
12 -8 0
-13 4 0
20 17 0
-12 -13 0
4 -28 0
16 -22 0
15 -19 0
1 14 0
-23 8 0
-12 22 0
-15 -20 0
-27 -26 0
5 -23 0
20 -1 0
7 18 0
4 14 0
11 -12 0
19 17 0
-25 -15 0
-16 17 0
-6 11 0
23 10 0
6 -15 0
26 -16 0
-28 -15 0
-29 23 0
-5 -20 0
30 -23 0
27 8 0
21 -2 0
-12 -17 0
6 -13 0
-23 5 0
-17 9 0
18 -24 0
-18 -16 0
-30 -29 0
6 -1 0
15 -30 0
-30 -20 0
-13 -30 0
26 14 0
-9 -27 0
28 -23 0
18 25 0
19 20 0
17 6 0
-23 9 0
16 -8 0
-28 -10 0
-10 11 0
24 -19 0
-29 11 0
17 20 0
-4 21 0
-13 -2 0
9 -3 0
18 2 0
-6 -17 0
15 -6 0
1 2 0
11 -27 0
-10 -19 0
21 -28 0
7 2 0
-28 29 0
29 -7 0
