c PROBLEM_030_090_23  vars=30  clausulas=90  k=2
p cnf 30 90
-19 -30 0
11 30 0
17 7 0
30 25 0
-12 19 0
-27 -4 0
13 -21 0
10 -22 0
10 24 0
17 9 0
5 9 0
22 18 0
-5 11 0
18 -20 0
28 -21 0
3 9 0
25 6 0
-5 1 0
-4 -1 0
-19 16 0
2 7 0
-18 -24 0
-24 -12 0
27 -30 0
-26 -23 0
-14 -7 0
-18 -15 0
-5 24 0
-22 -11 0
-16 21 0
16 20 0
-16 -15 0
-4 6 0
-28 13 0
15 -23 0
-26 7 0
-8 12 0
-10 12 0
-6 18 0
-4 -27 0
-20 11 0
-19 20 0
1 5 0
17 -2 0
18 -2 0
24 -7 0
23 8 0
-22 -9 0
-10 22 0
24 -2 0
19 -1 0
-10 -29 0
-15 -26 0
16 -1 0
12 -16 0
1 -14 0
-28 9 0
1 -14 0
-14 -8 0
-22 15 0
-25 6 0
11 13 0
-26 -16 0
-23 18 0
25 2 0
8 -25 0
-7 -25 0
22 8 0
2 -9 0
-4 -16 0
-2 12 0
27 -14 0
23 -8 0
-21 5 0
4 17 0
-8 -18 0
10 -19 0
6 -11 0
1 -15 0
5 -13 0
-26 -1 0
27 30 0
-27 -25 0
-19 4 0
16 -25 0
21 17 0
-22 4 0
-9 -23 0
22 15 0
-3 12 0
