c PROBLEM_030_090_14  vars=30  clausulas=90  k=2
p cnf 30 90
-24 17 0
-26 12 0
-17 -18 0
-13 3 0
1 16 0
8 7 0
-12 -14 0
-10 16 0
-28 -1 0
-26 -3 0
16 -29 0
-5 24 0
-13 7 0
26 7 0
-6 22 0
-20 11 0
-11 9 0
-23 2 0
10 17 0
18 -21 0
19 23 0
1 -22 0
-22 -4 0
-7 -8 0
-18 2 0
23 -21 0
-19 22 0
5 -2 0
-29 18 0
13 10 0
-16 15 0
10 22 0
11 -15 0
26 29 0
-26 3 0
27 -15 0
5 -22 0
-25 -20 0
-21 23 0
16 -18 0
21 -4 0
-17 7 0
-16 15 0
-14 -28 0
-21 16 0
-30 9 0
19 -3 0
25 -23 0
8 -28 0
24 25 0
5 -6 0
10 -1 0
15 -25 0
-25 -13 0
6 -2 0
29 25 0
-21 20 0
8 -18 0
-15 12 0
-23 4 0
21 11 0
28 -18 0
19 -26 0
26 11 0
-16 10 0
-1 24 0
26 27 0
-6 22 0
30 -19 0
10 20 0
-10 22 0
-21 12 0
-17 -22 0
6 -29 0
-1 27 0
7 -10 0
-25 28 0
20 -23 0
4 28 0
28 24 0
-16 -26 0
26 -14 0
-8 23 0
-26 -19 0
-12 27 0
-9 -13 0
-5 16 0
-3 11 0
1 -28 0
-8 -25 0
