c PROBLEM_030_090_49  vars=30  clausulas=90  k=2
p cnf 30 90
16 8 0
2 -10 0
-23 -21 0
15 -11 0
-27 23 0
9 -29 0
-24 -19 0
-13 -16 0
-14 -21 0
12 4 0
-1 3 0
28 -7 0
-22 3 0
-11 -4 0
-11 -20 0
-15 14 0
-4 3 0
-17 -19 0
6 -28 0
6 23 0
-12 -1 0
15 -12 0
-25 13 0
17 3 0
-26 19 0
15 4 0
15 26 0
21 18 0
-22 -11 0
-11 13 0
21 7 0
2 28 0
28 -27 0
-10 -5 0
12 14 0
12 10 0
8 -20 0
-28 -15 0
17 -15 0
19 -1 0
-29 -20 0
25 -18 0
22 20 0
-19 -24 0
-30 6 0
-26 -16 0
16 13 0
12 -25 0
21 -16 0
-9 14 0
28 -20 0
24 -23 0
28 17 0
-12 30 0
-20 9 0
1 7 0
-10 29 0
5 24 0
10 30 0
-28 -18 0
-2 -15 0
-18 -14 0
-8 30 0
-2 -21 0
25 2 0
27 -22 0
24 27 0
-21 -11 0
-15 -8 0
11 18 0
9 19 0
-12 -1 0
-20 -18 0
-21 17 0
26 29 0
-27 5 0
-15 -16 0
-7 9 0
2 23 0
-4 5 0
1 -21 0
-14 1 0
-30 -4 0
13 -4 0
-9 -22 0
-26 -25 0
2 28 0
17 22 0
-13 20 0
-3 -22 0
