c PROBLEM_030_090_13  vars=30  clausulas=90  k=2
p cnf 30 90
17 -24 0
19 10 0
-15 2 0
29 -11 0
-27 -9 0
-1 9 0
3 8 0
27 28 0
2 -18 0
1 30 0
28 15 0
-14 -7 0
9 24 0
-5 16 0
23 12 0
9 17 0
13 -10 0
19 28 0
6 27 0
15 19 0
24 2 0
-20 22 0
26 -11 0
1 8 0
29 -20 0
15 -16 0
-4 26 0
-30 -24 0
-5 10 0
-23 -21 0
1 12 0
18 17 0
-11 6 0
-2 -7 0
-2 17 0
7 11 0
19 -29 0
-21 14 0
-20 10 0
3 20 0
1 -9 0
-22 -7 0
-14 2 0
6 -20 0
-1 25 0
13 -14 0
3 -13 0
27 -11 0
17 26 0
-16 -11 0
-18 2 0
24 8 0
12 20 0
-11 -28 0
28 -22 0
-18 -1 0
17 -30 0
-9 -20 0
-16 25 0
14 -5 0
29 -23 0
5 -12 0
26 21 0
-11 10 0
27 -30 0
-8 -17 0
22 20 0
18 -19 0
1 9 0
-6 -16 0
-16 12 0
5 -14 0
3 19 0
14 -12 0
-19 6 0
15 -4 0
-20 18 0
3 23 0
-29 -15 0
28 1 0
16 7 0
-7 -10 0
11 -15 0
-4 18 0
23 8 0
-10 27 0
-24 -1 0
12 7 0
15 27 0
5 8 0
