c PROBLEM_030_090_15  vars=30  clausulas=90  k=2
p cnf 30 90
1 25 0
10 9 0
-18 25 0
-16 -25 0
11 -2 0
-25 22 0
-20 -25 0
22 5 0
28 23 0
-10 21 0
22 -7 0
-1 28 0
-4 22 0
-21 -29 0
-12 1 0
22 -3 0
21 -5 0
17 -2 0
-17 -11 0
-3 4 0
-27 -28 0
9 -20 0
-23 26 0
5 12 0
-24 -18 0
5 20 0
2 19 0
7 -9 0
-16 19 0
1 -9 0
1 2 0
17 15 0
20 14 0
18 -10 0
-17 -8 0
-30 26 0
29 25 0
-1 9 0
14 30 0
7 13 0
-4 -15 0
10 -20 0
-11 -5 0
12 -25 0
-27 18 0
-2 -20 0
-21 15 0
-8 15 0
23 3 0
16 -29 0
27 26 0
15 -18 0
10 18 0
-29 -6 0
8 7 0
4 -7 0
30 19 0
-3 15 0
4 -12 0
-23 25 0
27 -2 0
-16 15 0
5 17 0
-21 27 0
15 12 0
29 -30 0
-3 -7 0
-19 -21 0
-22 -5 0
-27 -17 0
-26 -10 0
-5 26 0
-18 19 0
-4 1 0
-27 -19 0
-27 29 0
3 29 0
-18 -29 0
20 -17 0
-28 -5 0
7 22 0
-24 27 0
-25 8 0
28 11 0
21 6 0
27 20 0
13 25 0
-5 -13 0
1 22 0
-1 -17 0
