c PROBLEM_030_090_25  vars=30  clausulas=90  k=2
p cnf 30 90
-29 2 0
-20 -7 0
10 -22 0
-6 -14 0
-24 -27 0
25 12 0
15 24 0
2 -23 0
-15 11 0
2 12 0
-17 26 0
3 19 0
-30 1 0
10 -14 0
-20 -29 0
1 13 0
10 23 0
12 23 0
13 -30 0
-17 -10 0
4 29 0
-19 -15 0
21 -28 0
27 29 0
-1 -17 0
-21 -25 0
22 -14 0
-24 18 0
17 3 0
-14 10 0
4 12 0
11 -12 0
-22 -21 0
-13 -8 0
-15 -1 0
-15 11 0
-29 -13 0
-10 7 0
24 -12 0
-22 -13 0
26 -8 0
-16 -23 0
-5 4 0
24 26 0
27 14 0
22 -24 0
-7 -19 0
11 9 0
27 -17 0
-11 -18 0
22 9 0
20 -5 0
5 13 0
-9 -10 0
21 20 0
-26 9 0
5 -10 0
-5 -6 0
-23 29 0
-15 21 0
7 16 0
-15 13 0
-7 3 0
26 29 0
29 10 0
-13 23 0
30 -13 0
-12 -29 0
14 18 0
7 -23 0
3 -22 0
1 16 0
-29 -2 0
-27 -4 0
-2 -16 0
-26 28 0
3 -8 0
18 -6 0
5 10 0
1 16 0
26 -13 0
-11 -15 0
-24 30 0
8 28 0
-9 18 0
20 13 0
-19 10 0
3 -25 0
29 13 0
-29 16 0
