c PROBLEM_100_100_48  vars=100  clausulas=100  k=2
p cnf 100 100
-82 -76 0
92 -58 0
26 -45 0
-45 54 0
-65 99 0
35 3 0
55 -2 0
-93 -48 0
-84 -71 0
-78 65 0
-49 61 0
-68 25 0
6 -65 0
52 4 0
-66 -98 0
41 19 0
-16 3 0
-60 43 0
-90 42 0
-26 -48 0
-40 47 0
-22 10 0
-59 7 0
14 -62 0
-96 -32 0
88 92 0
-11 80 0
16 15 0
-4 -83 0
-79 42 0
1 22 0
67 85 0
70 85 0
77 12 0
63 -73 0
80 55 0
67 -99 0
-94 86 0
41 -84 0
69 39 0
62 97 0
56 75 0
7 -18 0
9 -20 0
-44 72 0
-69 30 0
54 42 0
-13 -18 0
38 -15 0
92 7 0
24 -94 0
31 -57 0
92 48 0
-80 -93 0
5 -8 0
-70 -58 0
50 -21 0
-56 48 0
-78 -1 0
-64 87 0
91 38 0
3 29 0
22 47 0
47 -97 0
14 -62 0
-76 57 0
-70 -74 0
51 -89 0
-22 24 0
5 -10 0
-82 72 0
60 78 0
-36 -33 0
-100 -25 0
68 -73 0
27 29 0
32 66 0
-53 -100 0
98 -37 0
37 -64 0
95 -6 0
-41 81 0
-11 -49 0
7 29 0
23 84 0
14 -90 0
-63 95 0
33 -28 0
76 -23 0
-76 -87 0
-4 -76 0
26 -46 0
34 50 0
-15 -61 0
85 -17 0
-34 -81 0
71 29 0
78 79 0
19 -62 0
5 55 0
