c PROBLEM_100_100_13  vars=100  clausulas=100  k=2
p cnf 100 100
25 -54 0
95 76 0
31 -55 0
-22 -26 0
-75 -20 0
62 44 0
-95 -84 0
-15 14 0
59 -7 0
2 71 0
80 -4 0
89 -48 0
7 -93 0
98 16 0
78 56 0
94 92 0
60 52 0
52 -58 0
-47 83 0
13 44 0
14 -31 0
19 43 0
-52 58 0
5 -47 0
-79 -58 0
-17 29 0
32 -35 0
81 44 0
-6 48 0
42 -83 0
-67 37 0
96 85 0
-6 -88 0
25 -30 0
-24 37 0
38 33 0
-40 9 0
-67 -43 0
-21 73 0
-33 94 0
-6 -36 0
-45 -25 0
-69 -1 0
27 45 0
3 78 0
-74 -36 0
-9 60 0
8 -23 0
7 -54 0
41 36 0
10 61 0
21 81 0
-63 77 0
-12 64 0
73 -13 0
-54 -48 0
-68 29 0
45 54 0
-96 61 0
12 -87 0
3 6 0
-70 22 0
50 64 0
-54 12 0
84 -47 0
82 -52 0
99 11 0
-55 51 0
-35 -62 0
39 -78 0
66 -49 0
-93 -91 0
-44 39 0
75 -1 0
34 -57 0
-46 -53 0
29 28 0
-60 -51 0
-35 72 0
97 -59 0
-89 99 0
-39 24 0
-37 44 0
-65 97 0
74 -88 0
57 -22 0
-42 -72 0
-52 47 0
-90 -8 0
-100 -18 0
-12 -50 0
-14 -85 0
-86 59 0
82 94 0
-64 -56 0
-50 -80 0
75 7 0
96 -33 0
-97 -49 0
-46 93 0
