c PROBLEM_100_100_25  vars=100  clausulas=100  k=2
p cnf 100 100
-100 8 0
81 78 0
23 74 0
-75 70 0
17 -90 0
-40 100 0
-35 83 0
-97 -14 0
-76 -96 0
24 30 0
-24 71 0
88 -62 0
-26 -77 0
-84 14 0
88 8 0
-66 100 0
56 -54 0
-6 99 0
67 -72 0
69 79 0
-92 23 0
76 98 0
-92 -68 0
32 63 0
10 45 0
-28 48 0
-29 -12 0
-57 -40 0
87 27 0
-5 -84 0
-16 11 0
56 -79 0
81 -50 0
-68 -46 0
-88 52 0
7 -86 0
-17 -97 0
-53 -99 0
-24 -33 0
-21 9 0
-50 79 0
2 -89 0
-34 -38 0
13 -74 0
30 -4 0
-53 -40 0
43 -64 0
91 -98 0
-12 95 0
-27 -45 0
-67 5 0
-71 43 0
84 82 0
-42 92 0
64 58 0
60 80 0
20 85 0
-16 -70 0
-75 23 0
13 -31 0
95 24 0
-61 62 0
15 47 0
-33 81 0
37 -49 0
-13 -39 0
-80 -61 0
-40 -6 0
83 -13 0
-25 -5 0
69 22 0
42 75 0
-78 -25 0
-50 54 0
-46 -18 0
-79 -2 0
-2 -81 0
19 -85 0
51 33 0
45 -88 0
-39 -10 0
50 -65 0
-52 -67 0
41 -3 0
30 -55 0
26 -89 0
-44 48 0
-92 -28 0
-57 1 0
62 -22 0
76 -11 0
-55 -24 0
-73 -66 0
94 -42 0
-7 74 0
-32 -15 0
18 -56 0
4 -59 0
-1 -36 0
-93 55 0
