c PROBLEM_100_100_44  vars=100  clausulas=100  k=2
p cnf 100 100
-41 -56 0
-29 78 0
-41 68 0
-87 30 0
70 -56 0
8 83 0
37 -90 0
75 7 0
-97 -41 0
-54 47 0
-47 42 0
-19 -75 0
-22 -28 0
32 -85 0
-21 -67 0
93 80 0
-48 -63 0
-68 39 0
27 -69 0
58 -24 0
37 -44 0
2 -42 0
77 -98 0
-32 -22 0
-15 -43 0
-71 -38 0
-78 42 0
48 -16 0
-84 -10 0
-36 -35 0
-61 -30 0
-46 -29 0
6 -93 0
89 -58 0
-56 -97 0
52 60 0
-55 74 0
-83 -60 0
-9 79 0
25 34 0
-17 33 0
-61 -12 0
21 6 0
53 88 0
-9 35 0
5 78 0
59 -62 0
-11 4 0
-84 59 0
1 -53 0
-71 -20 0
45 -66 0
-39 -9 0
-7 19 0
100 -91 0
-93 -46 0
-64 -46 0
-98 -33 0
-31 -95 0
16 92 0
69 -60 0
-66 41 0
96 29 0
-80 -77 0
-23 -18 0
68 -72 0
11 -86 0
40 57 0
57 51 0
74 -90 0
72 -27 0
81 99 0
32 37 0
-71 24 0
77 -29 0
-61 -39 0
34 -23 0
96 13 0
58 91 0
49 76 0
-82 94 0
-11 -5 0
58 -24 0
-50 -97 0
-52 78 0
-3 -9 0
-26 -4 0
35 -55 0
-73 -55 0
31 70 0
5 65 0
-93 -78 0
84 71 0
-43 86 0
-14 45 0
80 -51 0
-76 -33 0
88 68 0
14 -58 0
-25 7 0
