c PROBLEM_100_100_41  vars=100  clausulas=100  k=2
p cnf 100 100
88 -82 0
88 78 0
2 -1 0
30 -11 0
-11 -79 0
-29 -76 0
-80 3 0
42 -44 0
63 85 0
88 49 0
-3 -40 0
-100 42 0
-94 32 0
-75 -69 0
77 -86 0
11 -71 0
-7 -5 0
-94 86 0
12 78 0
-91 -23 0
-48 -32 0
-47 64 0
23 -75 0
4 81 0
31 -16 0
-76 21 0
-96 -28 0
24 -53 0
65 40 0
-24 -53 0
2 -65 0
78 -55 0
-17 -64 0
50 -8 0
-90 -56 0
-76 2 0
-95 47 0
33 96 0
69 -27 0
-57 -52 0
91 -68 0
81 -16 0
-37 14 0
-70 91 0
-53 42 0
-68 23 0
39 97 0
-44 38 0
70 -61 0
93 -80 0
-99 45 0
-62 93 0
-13 43 0
60 -34 0
-91 41 0
23 20 0
-49 -3 0
1 35 0
58 6 0
42 15 0
60 -66 0
34 -29 0
29 -53 0
-18 46 0
-9 -77 0
-42 -52 0
-19 -36 0
30 -26 0
98 9 0
-54 -28 0
51 -10 0
-66 -73 0
-60 -64 0
18 92 0
19 15 0
95 67 0
83 57 0
44 -19 0
-15 91 0
40 -71 0
-66 22 0
5 55 0
-64 -46 0
-59 -91 0
-40 -30 0
-75 -83 0
42 -25 0
-65 10 0
-94 72 0
-84 -44 0
-87 82 0
-37 89 0
-99 -98 0
59 -95 0
-6 -76 0
-74 -52 0
74 40 0
60 85 0
13 81 0
-23 77 0
