c PROBLEM_100_100_50  vars=100  clausulas=100  k=2
p cnf 100 100
-37 65 0
-1 -28 0
66 11 0
-8 5 0
51 -69 0
-41 -79 0
43 -2 0
-49 56 0
-47 -68 0
97 -61 0
-33 76 0
23 55 0
-24 -11 0
25 -36 0
-40 32 0
-62 14 0
-77 -17 0
55 -63 0
74 66 0
39 92 0
-81 -63 0
11 -4 0
70 -32 0
40 66 0
-14 -81 0
-78 4 0
12 -53 0
-46 -89 0
85 -77 0
-3 -50 0
-13 1 0
57 -92 0
-59 90 0
74 95 0
-57 -51 0
-8 15 0
-95 100 0
-72 -29 0
-71 50 0
-40 21 0
-51 -10 0
-86 -17 0
44 41 0
-66 60 0
-26 -54 0
28 -75 0
-48 -90 0
-78 -95 0
-99 86 0
18 34 0
-79 -64 0
-23 -55 0
91 93 0
-47 3 0
-45 8 0
-9 22 0
83 45 0
51 18 0
10 50 0
-25 32 0
39 87 0
51 -57 0
-8 -17 0
39 58 0
-59 -80 0
-72 -60 0
64 94 0
-54 70 0
-66 -62 0
33 -91 0
-52 35 0
-7 5 0
-30 19 0
92 -88 0
56 -44 0
-98 35 0
-100 -6 0
99 39 0
38 73 0
-31 81 0
6 37 0
72 35 0
68 -43 0
-23 -47 0
-84 90 0
42 -47 0
6 12 0
85 17 0
-73 -77 0
71 -54 0
47 68 0
-20 -91 0
27 -82 0
-45 -95 0
67 -84 0
37 53 0
-4 -72 0
16 -86 0
96 70 0
-54 32 0
