c PROBLEM_100_100_30  vars=100  clausulas=100  k=2
p cnf 100 100
-53 -88 0
44 90 0
67 68 0
77 45 0
33 -72 0
72 -57 0
-32 4 0
-63 85 0
-28 -78 0
-12 5 0
-45 67 0
-85 62 0
-36 35 0
51 9 0
-99 54 0
61 -7 0
6 29 0
-3 17 0
73 -23 0
-15 -80 0
93 -69 0
-40 -26 0
27 -46 0
-90 74 0
62 25 0
55 -1 0
95 -43 0
67 72 0
-57 71 0
62 -26 0
-79 -9 0
9 68 0
67 24 0
15 -100 0
-73 32 0
68 37 0
65 -45 0
3 -97 0
4 93 0
-6 95 0
92 42 0
-53 5 0
-98 -41 0
27 -66 0
-59 -19 0
-96 85 0
-81 17 0
-46 -34 0
22 58 0
75 30 0
49 -2 0
-56 -81 0
55 -63 0
-80 50 0
44 60 0
66 -76 0
38 -10 0
-43 -40 0
49 -24 0
94 -51 0
-68 66 0
-13 57 0
21 84 0
-83 -8 0
-44 -86 0
-1 -88 0
79 -87 0
90 -37 0
-14 -29 0
-42 54 0
99 -100 0
-26 -56 0
60 57 0
24 -55 0
41 -38 0
7 -94 0
-82 70 0
-100 -93 0
56 -5 0
9 37 0
2 59 0
-85 -91 0
25 31 0
-17 28 0
13 -37 0
-44 -41 0
-55 -6 0
47 96 0
39 -14 0
97 52 0
48 -11 0
9 -17 0
-89 27 0
-20 -19 0
16 -97 0
-81 14 0
64 -41 0
-18 -74 0
34 -15 0
79 27 0
