c PROBLEM_100_100_33  vars=100  clausulas=100  k=2
p cnf 100 100
15 -18 0
95 -80 0
29 -88 0
59 24 0
-64 31 0
-41 26 0
-3 38 0
-58 91 0
64 -47 0
21 57 0
-87 -44 0
-79 97 0
76 95 0
92 -1 0
69 92 0
10 -90 0
-70 7 0
93 56 0
50 65 0
-10 -78 0
-82 -64 0
76 -79 0
-41 -86 0
-5 -50 0
-73 39 0
49 -70 0
-81 -60 0
-9 21 0
57 -78 0
56 -42 0
-74 70 0
-55 -37 0
-34 -65 0
-18 92 0
96 36 0
72 15 0
27 -86 0
-40 30 0
-27 -52 0
-91 -98 0
3 -30 0
12 -73 0
-77 62 0
-71 58 0
48 -53 0
40 -92 0
87 68 0
97 -43 0
35 -4 0
-83 -22 0
-75 79 0
-45 87 0
-6 9 0
69 96 0
-75 89 0
36 -46 0
-63 28 0
-28 99 0
11 -78 0
-94 -86 0
-61 32 0
-81 -8 0
67 -44 0
93 -50 0
-12 78 0
-20 -36 0
2 -54 0
-84 -8 0
25 51 0
70 23 0
74 43 0
-1 33 0
51 27 0
-17 -58 0
-98 -38 0
-49 -21 0
-69 -41 0
22 -90 0
57 24 0
96 -88 0
-66 -39 0
-49 48 0
-94 -10 0
46 84 0
89 19 0
-31 -77 0
-25 -98 0
76 57 0
-80 -60 0
-90 -48 0
-52 14 0
26 48 0
-9 100 0
16 -4 0
-88 -3 0
13 85 0
-5 -56 0
-47 89 0
95 -31 0
-23 -100 0
