c PROBLEM_100_100_04  vars=100  clausulas=100  k=2
p cnf 100 100
-75 -29 0
-55 -78 0
-64 34 0
88 60 0
-32 70 0
-85 90 0
34 33 0
-26 86 0
-74 86 0
84 44 0
1 68 0
12 54 0
-82 -41 0
45 -5 0
-51 100 0
53 92 0
-57 -67 0
-68 44 0
-15 -63 0
-81 30 0
-19 24 0
8 57 0
69 -2 0
7 44 0
28 19 0
27 -65 0
18 -43 0
-31 -83 0
-1 85 0
96 87 0
44 52 0
79 32 0
-62 90 0
38 -31 0
84 29 0
-17 -52 0
25 6 0
13 83 0
50 68 0
26 -32 0
11 80 0
-84 -49 0
-8 26 0
35 50 0
-80 -87 0
59 89 0
-73 -34 0
86 76 0
-3 80 0
98 -85 0
-74 89 0
33 -83 0
-7 43 0
20 33 0
-10 -17 0
66 -76 0
48 -94 0
84 -39 0
2 40 0
-99 -31 0
-29 -22 0
40 22 0
33 -39 0
13 66 0
46 -68 0
65 31 0
-13 43 0
-70 -76 0
-23 8 0
-35 36 0
-76 -72 0
-14 38 0
-78 -96 0
-82 -21 0
94 51 0
49 -37 0
72 -34 0
-3 42 0
97 -47 0
68 94 0
93 58 0
39 -88 0
74 -94 0
-67 -28 0
-94 -65 0
23 70 0
56 -5 0
-56 -92 0
1 18 0
-2 -47 0
-75 -81 0
-7 -39 0
87 -71 0
-16 -36 0
-97 95 0
-9 91 0
100 70 0
-60 45 0
61 -26 0
77 -4 0
