c PROBLEM_100_100_32  vars=100  clausulas=100  k=2
p cnf 100 100
35 43 0
13 42 0
30 70 0
-45 -87 0
-1 -87 0
16 83 0
90 61 0
-48 65 0
7 -66 0
-69 74 0
19 67 0
-100 30 0
21 53 0
89 69 0
-1 76 0
-65 -63 0
-22 -50 0
82 -86 0
95 -72 0
25 -58 0
70 -4 0
26 -2 0
-59 48 0
47 -76 0
78 -29 0
-13 33 0
-13 62 0
36 -27 0
-64 24 0
-84 -97 0
75 -73 0
54 58 0
-32 -90 0
12 -66 0
-89 -21 0
23 -26 0
15 31 0
77 9 0
49 93 0
37 91 0
44 -7 0
23 60 0
-6 44 0
-19 -89 0
-88 50 0
-71 6 0
-14 5 0
-44 75 0
-31 46 0
-96 -93 0
-98 -41 0
-55 56 0
63 -4 0
-36 7 0
57 -48 0
-99 7 0
79 75 0
-10 51 0
-100 -10 0
60 -34 0
53 83 0
99 29 0
100 -50 0
-50 94 0
48 46 0
-91 -30 0
4 44 0
-21 -73 0
-67 80 0
83 -68 0
-3 -65 0
-20 99 0
-58 -37 0
95 28 0
-34 99 0
6 -5 0
-22 36 0
64 83 0
51 53 0
-4 -68 0
-21 -28 0
-17 11 0
-3 39 0
33 18 0
29 42 0
41 37 0
-38 -33 0
97 -4 0
52 -56 0
-74 34 0
-59 92 0
-1 94 0
81 36 0
40 39 0
-32 -91 0
76 28 0
8 -64 0
-67 24 0
-37 -52 0
17 85 0
