c PROBLEM_100_100_27  vars=100  clausulas=100  k=2
p cnf 100 100
30 40 0
26 1 0
-9 -79 0
74 -75 0
-77 -64 0
-37 -70 0
-69 54 0
8 -62 0
6 48 0
-22 -58 0
89 12 0
-44 -80 0
-24 -40 0
-33 92 0
-64 -68 0
86 -60 0
35 -57 0
-67 32 0
-13 -78 0
-94 -91 0
70 52 0
71 76 0
81 44 0
-27 -47 0
-89 43 0
73 -20 0
49 36 0
-53 87 0
28 -43 0
-97 -16 0
-46 -48 0
14 71 0
19 -84 0
-61 11 0
-63 -92 0
-12 98 0
-25 -13 0
54 60 0
29 90 0
72 98 0
100 -20 0
67 31 0
99 -82 0
30 -7 0
82 -70 0
-99 72 0
33 -94 0
79 37 0
-50 -53 0
-88 -5 0
-5 83 0
-30 22 0
-89 3 0
20 -84 0
-90 -48 0
94 -19 0
-93 -99 0
-96 46 0
-94 -70 0
-20 6 0
15 10 0
-26 -43 0
59 34 0
41 65 0
26 22 0
25 -98 0
-23 -9 0
26 -32 0
-9 30 0
78 -66 0
-46 -42 0
74 -2 0
18 31 0
-21 -58 0
-63 69 0
9 85 0
-52 81 0
40 -51 0
33 -39 0
27 32 0
-60 65 0
22 43 0
-36 89 0
-5 56 0
-59 30 0
-17 35 0
-95 58 0
85 88 0
55 -95 0
-38 27 0
68 73 0
3 -45 0
87 93 0
95 21 0
21 52 0
38 -4 0
2 -53 0
74 28 0
29 -98 0
72 6 0
