c PROBLEM_100_100_08  vars=100  clausulas=100  k=2
p cnf 100 100
42 -5 0
21 82 0
97 -85 0
-8 86 0
-26 -35 0
70 87 0
-80 55 0
-73 -87 0
-83 -41 0
82 100 0
35 -15 0
85 28 0
100 80 0
-99 -36 0
-36 -20 0
-22 -88 0
-63 -89 0
33 -35 0
-25 49 0
47 -87 0
-10 -50 0
-8 -69 0
6 85 0
64 -89 0
-21 52 0
87 46 0
79 45 0
-44 46 0
-14 52 0
82 38 0
93 24 0
48 31 0
17 50 0
-76 43 0
-65 -83 0
20 -70 0
4 78 0
99 -34 0
100 -58 0
-39 46 0
-84 -46 0
-52 56 0
32 -7 0
-50 -19 0
38 3 0
66 -94 0
19 92 0
73 55 0
-2 -79 0
-28 -53 0
71 -16 0
-68 57 0
26 77 0
33 -58 0
-27 74 0
15 -56 0
62 -92 0
-83 -47 0
-32 96 0
17 -97 0
-24 -90 0
3 95 0
-23 36 0
-36 -44 0
85 -8 0
40 -78 0
-72 -40 0
18 -54 0
86 98 0
-58 -27 0
-66 34 0
-34 -69 0
-10 19 0
-15 63 0
-99 68 0
41 74 0
31 1 0
-92 81 0
89 -58 0
-61 72 0
-31 -24 0
86 41 0
-98 -46 0
-19 53 0
9 -11 0
-67 51 0
15 91 0
93 29 0
63 90 0
23 12 0
37 84 0
-91 10 0
44 80 0
-30 -60 0
33 -64 0
-59 -75 0
-57 13 0
9 70 0
64 -19 0
97 34 0
