c PROBLEM_100_100_49  vars=100  clausulas=100  k=2
p cnf 100 100
-10 2 0
-21 -93 0
8 -78 0
-24 77 0
-25 47 0
30 40 0
-21 68 0
60 -17 0
-71 -65 0
24 -55 0
50 63 0
-38 -76 0
-84 -15 0
30 -73 0
65 23 0
-44 94 0
62 -95 0
-40 62 0
11 -56 0
18 -73 0
5 80 0
-65 95 0
-89 78 0
-27 72 0
-19 -13 0
41 -4 0
-45 11 0
-76 100 0
-74 65 0
26 -2 0
56 76 0
-31 38 0
-29 31 0
-92 -21 0
1 -36 0
100 -97 0
-75 -42 0
-100 85 0
-62 10 0
-13 71 0
-44 -28 0
16 14 0
87 -49 0
-7 51 0
-93 43 0
-99 68 0
32 -84 0
13 -48 0
14 32 0
50 -80 0
88 -12 0
7 -98 0
-23 -26 0
-69 28 0
-79 -86 0
63 92 0
-70 39 0
-62 57 0
64 33 0
25 43 0
72 -3 0
-45 51 0
-40 -55 0
-33 -6 0
-30 -14 0
46 61 0
-33 -6 0
58 -10 0
67 3 0
-70 -61 0
38 -25 0
-67 89 0
6 -55 0
-91 -56 0
15 73 0
-96 89 0
-1 32 0
80 74 0
21 49 0
-53 -49 0
-91 59 0
47 82 0
63 -87 0
-34 99 0
22 81 0
4 36 0
41 -66 0
35 90 0
100 -54 0
2 -45 0
91 -51 0
-37 -20 0
-79 83 0
-34 46 0
49 92 0
9 -52 0
-74 -72 0
8 34 0
-90 54 0
-34 -26 0
