c PROBLEM_100_100_02  vars=100  clausulas=100  k=2
p cnf 100 100
-78 -22 0
100 19 0
-59 38 0
-71 -3 0
-42 -33 0
81 58 0
83 68 0
-18 -11 0
-66 24 0
-90 -87 0
12 -15 0
29 -66 0
-23 -64 0
98 -31 0
-16 -18 0
-25 60 0
-97 -76 0
-17 -56 0
91 -28 0
34 -78 0
-1 -78 0
41 -46 0
-83 55 0
-77 49 0
100 68 0
-25 67 0
-9 -8 0
-28 9 0
-1 -35 0
45 -48 0
-56 11 0
11 69 0
-26 -65 0
17 63 0
-14 -78 0
-18 -98 0
24 48 0
85 -53 0
-12 -50 0
27 26 0
10 99 0
-32 -5 0
86 -80 0
-13 57 0
56 61 0
-7 -73 0
-94 37 0
-5 63 0
-39 -47 0
82 4 0
-33 40 0
-99 -3 0
-30 -51 0
2 90 0
54 -89 0
2 27 0
74 -52 0
82 -60 0
75 88 0
-43 -29 0
95 16 0
-11 -92 0
62 -70 0
-61 -47 0
34 48 0
32 -45 0
79 98 0
47 -1 0
-73 -6 0
92 3 0
-20 -57 0
78 71 0
36 -92 0
85 44 0
2 77 0
87 79 0
-14 -7 0
72 1 0
62 -1 0
-26 -97 0
-53 -28 0
80 29 0
-43 -48 0
36 3 0
-21 -33 0
-65 52 0
71 -64 0
-84 75 0
86 -58 0
93 -32 0
-83 66 0
-53 66 0
-47 -35 0
-47 8 0
-86 96 0
20 -89 0
8 -88 0
-66 18 0
-98 -57 0
58 -85 0
