c PROBLEM_100_100_06  vars=100  clausulas=100  k=2
p cnf 100 100
40 2 0
-63 -91 0
-97 -29 0
12 42 0
80 21 0
6 -45 0
38 -79 0
71 18 0
93 16 0
76 23 0
-55 -86 0
-12 -56 0
88 61 0
7 26 0
35 55 0
89 -26 0
-20 -89 0
-74 46 0
-98 -9 0
98 47 0
85 -41 0
-44 23 0
74 -83 0
70 14 0
66 98 0
-55 54 0
-27 64 0
36 10 0
-80 -3 0
-59 22 0
92 -40 0
-43 72 0
37 48 0
-14 -80 0
-58 10 0
70 39 0
-46 31 0
-23 81 0
45 89 0
-32 -14 0
-78 34 0
99 55 0
-15 -59 0
47 83 0
-71 -59 0
49 28 0
-35 73 0
-9 -77 0
33 51 0
65 4 0
-50 -82 0
-68 -30 0
-23 -60 0
-78 36 0
-35 55 0
-29 17 0
-54 -21 0
-69 -61 0
20 52 0
-96 80 0
10 81 0
-22 -8 0
-31 -72 0
-37 24 0
-22 -61 0
21 56 0
25 59 0
-87 -75 0
70 -31 0
-65 1 0
-30 -76 0
-66 -84 0
-22 7 0
20 44 0
34 -65 0
-29 1 0
59 90 0
100 -13 0
-66 -53 0
42 -6 0
-53 52 0
-26 96 0
60 -57 0
56 67 0
88 5 0
-25 -97 0
-11 -32 0
-26 -73 0
-87 -22 0
77 -48 0
62 2 0
73 -94 0
28 46 0
85 95 0
19 26 0
-60 42 0
66 63 0
-71 -29 0
64 8 0
-15 4 0
