c PROBLEM_100_100_29  vars=100  clausulas=100  k=2
p cnf 100 100
74 -80 0
17 -70 0
72 -12 0
-68 -35 0
-46 69 0
-16 22 0
-30 -79 0
-36 -32 0
23 67 0
59 -38 0
-98 3 0
89 -66 0
-81 96 0
-43 -84 0
50 -94 0
98 -42 0
81 -77 0
64 -47 0
-36 41 0
49 -32 0
-58 -61 0
-6 -30 0
61 -81 0
-75 -93 0
-48 88 0
46 -23 0
-44 -71 0
29 -68 0
-95 30 0
73 -57 0
-43 -14 0
-40 75 0
74 -92 0
97 -19 0
-55 -66 0
-18 32 0
81 3 0
25 13 0
54 -74 0
-45 -37 0
81 43 0
1 54 0
-73 5 0
44 83 0
52 -95 0
-24 34 0
86 -51 0
-62 -85 0
-38 -82 0
-65 19 0
31 58 0
56 76 0
-52 -83 0
-48 44 0
99 39 0
34 92 0
86 -9 0
4 -11 0
-62 15 0
16 26 0
-20 40 0
-98 26 0
14 64 0
-38 48 0
96 98 0
24 89 0
47 60 0
99 -34 0
3 62 0
-59 64 0
73 -91 0
21 90 0
-9 76 0
39 -25 0
2 -93 0
67 -68 0
-29 -78 0
91 63 0
-8 17 0
-77 -28 0
85 7 0
-78 84 0
-63 94 0
-71 -84 0
-43 -87 0
69 100 0
24 55 0
97 47 0
25 -41 0
-53 94 0
-80 89 0
10 35 0
-10 1 0
-29 -70 0
13 -70 0
-75 -27 0
-55 -26 0
33 -18 0
2 -27 0
100 58 0
