c PROBLEM_100_100_40  vars=100  clausulas=100  k=2
p cnf 100 100
39 10 0
-100 8 0
-83 11 0
-15 38 0
-44 -26 0
-23 -76 0
64 -10 0
92 -53 0
-82 79 0
-11 29 0
76 -47 0
17 -56 0
-90 61 0
35 69 0
-33 70 0
-3 -45 0
41 53 0
73 21 0
88 72 0
-3 -92 0
-6 81 0
42 -78 0
1 -44 0
-68 -23 0
-24 -45 0
78 -18 0
97 -61 0
-97 -70 0
-25 -57 0
20 -34 0
-44 41 0
-48 -79 0
15 12 0
67 -82 0
-50 40 0
72 77 0
-74 55 0
-62 -94 0
-83 7 0
93 -96 0
93 32 0
-56 -77 0
-82 -86 0
39 -44 0
-34 -32 0
-20 -75 0
-14 48 0
45 37 0
19 22 0
-89 16 0
-27 43 0
-96 35 0
-58 -2 0
-71 37 0
36 -89 0
-49 97 0
62 49 0
49 40 0
55 -12 0
-26 46 0
29 -100 0
-98 87 0
-28 54 0
11 -2 0
25 31 0
-36 27 0
93 -13 0
89 -14 0
99 75 0
39 40 0
-13 -60 0
100 -65 0
-6 -13 0
-3 -84 0
23 -28 0
58 -66 0
-23 98 0
-30 -15 0
52 53 0
11 32 0
21 -75 0
-26 -66 0
13 -95 0
49 -9 0
-4 70 0
41 59 0
-33 99 0
100 -80 0
67 -37 0
5 73 0
66 51 0
-88 100 0
84 -70 0
84 47 0
-28 -61 0
-4 -63 0
-11 91 0
42 -66 0
-65 31 0
85 24 0
