c PROBLEM_100_100_14  vars=100  clausulas=100  k=2
p cnf 100 100
55 89 0
-83 -41 0
-77 7 0
62 -30 0
-10 -18 0
73 -82 0
-53 81 0
24 63 0
16 69 0
-80 -41 0
-56 -44 0
-50 14 0
-84 -9 0
87 60 0
25 -66 0
54 4 0
-54 -64 0
-64 69 0
-94 81 0
76 -96 0
86 12 0
27 93 0
-11 -92 0
55 70 0
57 -92 0
-35 -21 0
79 -21 0
65 -15 0
-100 36 0
67 11 0
-47 88 0
-89 99 0
-99 28 0
87 -7 0
32 -68 0
72 -21 0
-32 59 0
-73 5 0
78 23 0
-59 -76 0
52 -61 0
93 66 0
1 62 0
-16 65 0
-74 87 0
39 1 0
-75 -3 0
-65 46 0
75 10 0
17 -26 0
80 90 0
-2 -76 0
-16 40 0
-92 40 0
20 14 0
8 -46 0
-64 58 0
6 42 0
96 45 0
-53 44 0
-85 62 0
62 52 0
98 29 0
39 31 0
-90 16 0
-24 63 0
79 66 0
37 71 0
47 -49 0
-37 17 0
11 25 0
-3 60 0
-4 13 0
75 64 0
-75 9 0
51 89 0
-82 -22 0
-43 -64 0
66 72 0
59 -40 0
63 -50 0
-34 79 0
83 97 0
-3 89 0
-41 -73 0
-17 65 0
80 6 0
97 -53 0
-38 33 0
50 -49 0
-4 -19 0
84 -32 0
-45 -91 0
23 -48 0
-54 -36 0
-100 -95 0
-73 11 0
-81 -70 0
60 13 0
-93 -23 0
