c PROBLEM_100_100_05  vars=100  clausulas=100  k=2
p cnf 100 100
-42 -65 0
-58 91 0
-93 67 0
-63 -8 0
50 -61 0
94 67 0
32 11 0
24 -51 0
-9 -19 0
-18 -62 0
29 87 0
-37 44 0
41 -11 0
75 97 0
-20 15 0
74 36 0
18 78 0
75 -59 0
93 -19 0
-62 -65 0
-66 -60 0
-4 56 0
61 2 0
-17 -38 0
-78 -77 0
25 93 0
38 44 0
98 -52 0
-91 -78 0
-23 72 0
78 -58 0
34 -26 0
-31 -90 0
-97 -5 0
-76 -91 0
-31 -30 0
46 -94 0
-86 73 0
53 14 0
40 -62 0
20 17 0
24 -38 0
45 -40 0
-83 85 0
53 -39 0
-9 -32 0
55 -48 0
80 -84 0
78 -91 0
-29 -69 0
-41 100 0
-5 -69 0
7 -70 0
-52 -6 0
34 -10 0
50 98 0
24 -2 0
-1 -81 0
57 -99 0
-96 36 0
8 -99 0
33 78 0
-99 50 0
52 -68 0
42 90 0
-47 76 0
75 32 0
60 2 0
-14 58 0
46 48 0
18 -35 0
25 79 0
25 -1 0
51 -33 0
90 -73 0
-94 -26 0
22 -43 0
37 -69 0
-1 92 0
10 62 0
49 12 0
39 6 0
-64 -54 0
-3 59 0
45 69 0
75 28 0
88 60 0
76 43 0
17 -57 0
-27 -95 0
-52 -71 0
-52 -17 0
71 -88 0
-84 -48 0
-95 -81 0
58 73 0
94 -16 0
-97 -75 0
89 -13 0
-21 -82 0
