c PROBLEM_030_100_13  vars=30  clausulas=100  k=2
p cnf 30 100
-2 -20 0
-12 30 0
25 -16 0
14 -24 0
-22 -30 0
29 10 0
-18 17 0
-27 13 0
23 -11 0
20 22 0
-1 24 0
-12 28 0
26 -5 0
-6 -12 0
-7 27 0
4 26 0
-12 21 0
13 21 0
27 -17 0
11 2 0
-13 -30 0
6 -12 0
8 -11 0
-26 18 0
1 -15 0
8 -6 0
7 -19 0
-3 -2 0
-9 -2 0
-19 -5 0
-5 -21 0
-19 16 0
-2 -9 0
28 -21 0
8 -19 0
-3 -26 0
22 17 0
14 12 0
-11 -19 0
-8 21 0
13 8 0
13 21 0
-26 -19 0
14 24 0
-30 1 0
30 20 0
20 1 0
-15 6 0
-17 -27 0
-21 -9 0
-18 -9 0
26 16 0
20 -2 0
22 -26 0
18 -8 0
8 28 0
13 -29 0
17 3 0
22 -27 0
-15 -8 0
-13 -29 0
28 12 0
-19 -12 0
8 -3 0
-2 13 0
-13 4 0
-9 -15 0
30 10 0
12 -13 0
23 -25 0
-4 26 0
-2 25 0
-5 -18 0
-25 15 0
23 10 0
3 24 0
-4 -9 0
-20 26 0
-22 -12 0
-20 14 0
29 -19 0
-10 -2 0
1 -26 0
29 4 0
-28 26 0
5 -8 0
-24 13 0
-9 -1 0
-27 6 0
-25 -3 0
-21 -16 0
-19 7 0
18 -17 0
-17 13 0
21 -26 0
-9 10 0
-25 -15 0
12 14 0
10 -11 0
4 -18 0
