c PROBLEM_030_100_30  vars=30  clausulas=100  k=2
p cnf 30 100
-5 -18 0
16 2 0
-11 -25 0
23 -4 0
21 -20 0
8 -21 0
27 -22 0
-8 -14 0
-1 -21 0
-24 -12 0
-29 3 0
1 -17 0
29 -12 0
-16 24 0
14 7 0
13 -10 0
-30 4 0
-25 4 0
-28 16 0
10 2 0
-4 -16 0
-30 -19 0
-28 26 0
4 -3 0
22 27 0
-25 -17 0
-18 7 0
16 -21 0
1 -19 0
11 -29 0
-24 3 0
15 -25 0
-23 -25 0
-14 22 0
-11 -6 0
6 20 0
11 7 0
-13 19 0
-17 -8 0
-7 -25 0
18 -24 0
8 12 0
26 12 0
-14 10 0
-8 7 0
-18 -15 0
28 6 0
11 14 0
-13 18 0
18 -10 0
27 29 0
23 20 0
-27 4 0
11 8 0
26 16 0
22 20 0
21 22 0
18 22 0
30 16 0
19 29 0
3 12 0
-29 -16 0
-24 12 0
-3 16 0
-24 -2 0
28 -12 0
16 5 0
-7 -24 0
22 20 0
18 26 0
7 18 0
-13 -19 0
25 -1 0
19 -17 0
4 14 0
19 -12 0
-17 30 0
-17 24 0
-28 25 0
-28 -5 0
-10 -9 0
24 -7 0
28 11 0
17 28 0
9 25 0
-19 1 0
28 24 0
-2 26 0
5 -12 0
21 2 0
-6 1 0
-11 1 0
-25 19 0
-27 10 0
26 -22 0
-5 -13 0
-22 -20 0
18 19 0
10 29 0
19 9 0
