c PROBLEM_030_100_18  vars=30  clausulas=100  k=2
p cnf 30 100
19 -26 0
-15 -28 0
-18 3 0
-27 12 0
22 21 0
18 25 0
-4 -10 0
-5 14 0
-16 -3 0
-28 -27 0
-11 12 0
-6 3 0
22 -28 0
15 -28 0
-3 -27 0
-28 22 0
-28 -18 0
-20 -29 0
-30 -26 0
-19 -17 0
-4 -17 0
-20 28 0
6 -11 0
5 -27 0
-1 -4 0
14 -19 0
-30 13 0
15 22 0
15 -22 0
-1 -12 0
11 -28 0
6 4 0
-3 20 0
-21 25 0
-6 8 0
15 24 0
27 -8 0
-9 -17 0
-24 -7 0
-27 9 0
25 3 0
-24 21 0
17 -2 0
14 26 0
-16 26 0
17 10 0
29 25 0
-11 -18 0
-6 -8 0
-9 14 0
-19 -21 0
13 -4 0
-9 -17 0
6 -11 0
28 21 0
-1 22 0
7 -28 0
-23 -30 0
6 -4 0
20 28 0
15 1 0
24 2 0
-21 -29 0
28 -29 0
-12 27 0
26 -19 0
-3 10 0
1 7 0
27 -30 0
-4 15 0
21 -2 0
-2 7 0
-8 -24 0
7 23 0
-15 17 0
-23 1 0
15 19 0
17 8 0
17 -21 0
27 -26 0
-27 6 0
-25 30 0
-5 -27 0
15 29 0
-16 -22 0
4 -3 0
-10 16 0
-5 -27 0
11 -21 0
-27 8 0
12 -17 0
25 30 0
25 4 0
-10 -28 0
9 -11 0
26 28 0
28 1 0
-19 -1 0
-16 23 0
8 -19 0
