c PROBLEM_030_100_23  vars=30  clausulas=100  k=2
p cnf 30 100
12 -19 0
-22 -20 0
-27 28 0
-29 -19 0
-13 -8 0
-11 -17 0
-13 -17 0
2 -7 0
28 25 0
-5 -27 0
18 28 0
-15 -25 0
-10 -14 0
-23 -24 0
18 -6 0
6 -10 0
-1 -9 0
1 -23 0
-13 16 0
20 1 0
23 15 0
-15 -5 0
-18 25 0
-13 -18 0
28 20 0
26 22 0
-8 -17 0
-10 -16 0
-1 -25 0
-2 -6 0
24 7 0
-30 25 0
14 22 0
-14 20 0
-21 -23 0
25 11 0
-26 2 0
-20 21 0
-22 17 0
-11 -30 0
-22 8 0
-15 -29 0
-3 -28 0
21 -28 0
-30 28 0
-11 -28 0
16 -28 0
-22 -3 0
23 15 0
-19 -28 0
-2 6 0
-11 25 0
-10 29 0
-29 23 0
-30 8 0
8 9 0
21 -19 0
-2 15 0
16 23 0
-19 25 0
-9 25 0
-14 -11 0
18 -9 0
-20 18 0
5 3 0
-16 -13 0
13 18 0
-11 4 0
29 -8 0
-19 10 0
22 24 0
25 -23 0
-11 -30 0
6 9 0
22 8 0
25 -26 0
28 26 0
-22 21 0
-12 -24 0
14 6 0
-13 -4 0
-10 7 0
-1 -29 0
30 -4 0
18 -24 0
13 -16 0
-12 25 0
28 -10 0
30 11 0
-29 24 0
-14 29 0
28 -14 0
-6 -28 0
10 28 0
13 25 0
22 23 0
-19 4 0
28 -17 0
26 -29 0
-18 -27 0
