c PROBLEM_030_100_46  vars=30  clausulas=100  k=2
p cnf 30 100
26 22 0
4 19 0
-18 -25 0
-20 -22 0
-18 13 0
-5 -28 0
-27 10 0
20 10 0
-20 27 0
22 18 0
-2 18 0
7 -15 0
-16 -26 0
-20 6 0
5 -16 0
17 -30 0
-10 -11 0
-19 4 0
26 -12 0
20 18 0
-28 4 0
7 -21 0
-14 -21 0
17 -26 0
23 16 0
2 19 0
30 -25 0
-2 3 0
25 -19 0
-21 3 0
29 -20 0
16 17 0
-11 -20 0
5 18 0
-3 16 0
-21 -28 0
4 -7 0
18 -8 0
2 -16 0
-9 -21 0
-16 7 0
-13 15 0
19 14 0
20 -7 0
-1 4 0
14 9 0
-12 -1 0
-27 -1 0
21 -6 0
-16 13 0
9 27 0
-25 2 0
3 -30 0
-27 2 0
14 25 0
17 -28 0
-30 9 0
5 10 0
12 -2 0
24 10 0
28 18 0
12 -21 0
-29 27 0
29 23 0
23 22 0
-30 6 0
-13 17 0
5 14 0
11 -27 0
17 -19 0
-24 27 0
-23 -18 0
-2 17 0
-10 12 0
-28 -15 0
-1 -16 0
4 8 0
12 13 0
22 -27 0
23 10 0
-20 8 0
-22 -18 0
29 15 0
-26 8 0
-8 -7 0
-27 -16 0
-17 -23 0
-16 -1 0
23 -24 0
-16 9 0
-6 8 0
-18 -11 0
-29 -17 0
2 -18 0
-23 7 0
-16 -3 0
-3 -12 0
-7 -24 0
-21 -14 0
-9 -8 0
