c PROBLEM_030_100_40  vars=30  clausulas=100  k=2
p cnf 30 100
1 23 0
-5 -16 0
15 17 0
-15 9 0
15 -12 0
28 14 0
-20 -11 0
-26 8 0
2 -3 0
-27 -7 0
13 16 0
-9 28 0
-9 12 0
24 30 0
29 -2 0
16 -14 0
8 19 0
4 12 0
-29 1 0
28 -20 0
27 -23 0
-15 -11 0
-2 9 0
-9 -18 0
-29 2 0
25 -3 0
-16 -25 0
4 21 0
-15 8 0
1 -2 0
-27 23 0
10 -23 0
-19 21 0
-6 29 0
-8 -12 0
3 -19 0
-9 2 0
-5 -15 0
6 2 0
-20 7 0
-10 -26 0
7 1 0
-30 23 0
-26 -14 0
18 -22 0
-19 5 0
-15 -4 0
-2 28 0
21 1 0
-26 22 0
28 -15 0
16 -2 0
6 12 0
5 -13 0
-3 -24 0
-4 27 0
14 23 0
2 -7 0
25 -29 0
-1 -26 0
12 -1 0
16 -29 0
16 4 0
4 -8 0
5 -2 0
-2 26 0
19 -22 0
-4 24 0
-26 -2 0
29 -26 0
19 -23 0
18 -9 0
-9 12 0
-6 19 0
-30 -16 0
-27 17 0
-27 -3 0
-13 -1 0
-22 6 0
30 16 0
-22 -16 0
-12 -1 0
9 -28 0
-13 -24 0
11 30 0
-9 -28 0
8 -1 0
-19 3 0
26 -28 0
27 -25 0
-11 12 0
8 25 0
-28 4 0
10 24 0
-6 -21 0
19 -10 0
29 -13 0
-24 19 0
-4 16 0
7 -18 0
