c PROBLEM_030_100_05  vars=30  clausulas=100  k=2
p cnf 30 100
-12 -20 0
23 6 0
7 -20 0
30 7 0
-27 -3 0
2 25 0
-13 -14 0
4 -7 0
-8 2 0
-6 -20 0
23 -14 0
-24 -7 0
2 -1 0
-28 -6 0
-25 -15 0
-12 4 0
-26 17 0
8 30 0
16 -5 0
5 10 0
-15 10 0
-16 -28 0
-16 28 0
-17 3 0
29 7 0
-16 -30 0
19 11 0
-1 15 0
-21 -8 0
6 7 0
-21 9 0
-7 24 0
13 -20 0
-24 -3 0
-12 26 0
4 -29 0
19 13 0
-18 20 0
-8 26 0
14 6 0
-9 21 0
-21 -19 0
-27 -19 0
-1 -11 0
-19 -22 0
21 30 0
-15 18 0
19 6 0
-9 -8 0
15 1 0
-24 -10 0
22 8 0
-6 -1 0
26 -10 0
-2 3 0
-2 -15 0
-23 -2 0
-28 6 0
22 8 0
24 15 0
-26 -2 0
11 8 0
-11 -27 0
-14 27 0
-8 7 0
-29 28 0
11 -22 0
-10 7 0
30 8 0
-3 29 0
-11 -15 0
25 -12 0
17 -12 0
-8 14 0
-28 -7 0
-14 1 0
-9 18 0
15 13 0
1 22 0
3 24 0
7 9 0
27 -26 0
-7 -2 0
-20 -29 0
29 -1 0
27 -18 0
30 -4 0
17 -22 0
26 -9 0
-19 6 0
-16 8 0
-18 15 0
-1 -12 0
29 2 0
4 28 0
-14 -16 0
15 -21 0
-19 29 0
12 -19 0
-25 19 0
