c PROBLEM_030_100_32  vars=30  clausulas=100  k=2
p cnf 30 100
-26 25 0
4 13 0
-7 -8 0
-26 -21 0
8 -9 0
7 22 0
-1 -27 0
-27 -23 0
13 12 0
-1 -2 0
-19 29 0
30 -4 0
17 30 0
-29 -11 0
15 30 0
27 -22 0
21 -12 0
-13 5 0
-9 -6 0
8 10 0
-23 15 0
10 -7 0
11 15 0
-25 -24 0
-14 -18 0
-27 -24 0
-5 -9 0
5 24 0
-29 26 0
6 -22 0
-19 -30 0
-14 27 0
-17 24 0
-8 12 0
29 -30 0
18 -3 0
20 -29 0
-7 -13 0
-29 -17 0
-10 -22 0
-26 9 0
19 -14 0
-17 6 0
-12 -16 0
-28 -14 0
-2 6 0
20 -4 0
-11 -15 0
-30 20 0
21 22 0
-13 4 0
-23 -16 0
25 -28 0
8 20 0
-9 -30 0
26 -17 0
7 -19 0
-4 -20 0
24 -14 0
-19 -15 0
-29 -4 0
-13 24 0
7 10 0
-18 3 0
1 26 0
-10 2 0
-23 -6 0
-7 21 0
-18 -30 0
-16 -24 0
23 11 0
3 -16 0
-19 -28 0
-4 12 0
-11 -22 0
23 -24 0
-17 -13 0
-28 -21 0
-10 24 0
19 -27 0
22 -19 0
-8 -26 0
12 -8 0
-17 22 0
13 9 0
29 22 0
-22 18 0
15 -9 0
26 -8 0
-26 -11 0
-20 -1 0
-22 -27 0
23 -22 0
-4 8 0
16 -4 0
-13 1 0
9 3 0
-23 -21 0
-25 5 0
8 -28 0
