c PROBLEM_030_100_35  vars=30  clausulas=100  k=2
p cnf 30 100
-12 17 0
-30 -11 0
-24 21 0
23 20 0
-29 -1 0
-14 -4 0
18 -26 0
-30 11 0
-1 -15 0
25 19 0
6 -4 0
-6 -9 0
27 -23 0
-13 -11 0
-11 2 0
-15 11 0
25 -1 0
6 27 0
-21 -23 0
-11 1 0
25 -4 0
-29 -14 0
8 30 0
30 -1 0
27 24 0
-21 -27 0
-21 -13 0
4 3 0
-20 16 0
-30 28 0
-11 6 0
27 -2 0
13 -16 0
-5 27 0
16 13 0
25 -28 0
-21 14 0
15 10 0
30 -28 0
-27 -25 0
17 -15 0
-10 8 0
15 -20 0
-6 20 0
16 -30 0
11 -19 0
-6 -22 0
9 19 0
-2 -6 0
14 -28 0
27 17 0
-7 -1 0
26 -25 0
13 -23 0
-25 6 0
7 28 0
-4 16 0
11 -26 0
21 -6 0
-20 -13 0
-5 23 0
21 -11 0
-25 28 0
14 25 0
-13 -28 0
3 12 0
-28 29 0
22 -14 0
-19 -17 0
11 26 0
-7 -15 0
-3 -24 0
-14 -11 0
25 16 0
-1 8 0
-7 -28 0
-9 -25 0
5 3 0
22 -8 0
28 -30 0
10 -22 0
14 -11 0
12 25 0
17 -26 0
-30 10 0
18 -9 0
-22 -24 0
-20 -4 0
30 5 0
-6 -10 0
14 -20 0
-29 -30 0
13 2 0
-9 -28 0
30 26 0
-8 24 0
-23 10 0
22 2 0
20 16 0
-17 16 0
