c PROBLEM_030_100_34  vars=30  clausulas=100  k=2
p cnf 30 100
20 -12 0
22 -30 0
27 -15 0
-26 1 0
-18 -12 0
9 2 0
-23 20 0
-26 -19 0
1 8 0
16 19 0
-5 -13 0
-29 -1 0
2 -5 0
-27 21 0
24 -1 0
-22 4 0
-8 28 0
-26 18 0
4 22 0
-29 -17 0
-3 26 0
24 -12 0
27 24 0
-3 28 0
-16 7 0
13 -21 0
-17 29 0
-30 -6 0
29 -5 0
-12 11 0
16 -29 0
-3 5 0
-18 -15 0
1 21 0
1 20 0
17 14 0
-29 -20 0
-14 10 0
-15 8 0
-15 2 0
-15 10 0
-5 13 0
-8 18 0
27 -14 0
-5 -10 0
21 28 0
14 3 0
10 -16 0
14 6 0
13 2 0
24 -1 0
17 23 0
12 23 0
-24 29 0
3 8 0
-1 -8 0
24 -30 0
-26 10 0
22 29 0
5 -22 0
8 30 0
25 -11 0
-15 -19 0
-21 1 0
-1 -24 0
16 -2 0
-25 18 0
27 -10 0
16 4 0
9 -22 0
8 -24 0
30 -26 0
-3 -13 0
-11 -3 0
-29 -15 0
-21 -28 0
30 12 0
22 14 0
-1 10 0
-1 -16 0
-28 15 0
30 -4 0
20 -1 0
11 -24 0
-13 -6 0
-20 -17 0
-18 7 0
24 6 0
-17 2 0
3 -27 0
-7 19 0
-12 -7 0
-11 16 0
4 14 0
9 -30 0
26 -14 0
-23 -20 0
-17 6 0
23 29 0
-23 21 0
