c PROBLEM_030_100_11  vars=30  clausulas=100  k=2
p cnf 30 100
11 4 0
1 23 0
-9 1 0
29 -25 0
10 -30 0
-13 25 0
2 24 0
16 -10 0
-4 -8 0
29 14 0
-2 -27 0
-26 -14 0
7 -9 0
-16 -5 0
13 -15 0
-25 -7 0
6 -28 0
-24 -23 0
-10 12 0
-25 22 0
-22 4 0
-19 8 0
-23 -8 0
-28 11 0
22 -7 0
-13 7 0
4 29 0
-9 3 0
6 -5 0
21 -13 0
18 30 0
-15 5 0
14 -3 0
-16 10 0
-23 -14 0
-28 -10 0
17 -2 0
-30 -27 0
22 -28 0
4 -12 0
-22 4 0
21 -8 0
12 -30 0
-18 -30 0
-15 -2 0
-18 -3 0
20 -13 0
21 -18 0
16 26 0
17 11 0
5 14 0
-30 25 0
29 20 0
30 -29 0
-8 -9 0
-8 -14 0
3 -29 0
-15 19 0
-28 -12 0
29 -27 0
-21 -7 0
-2 10 0
23 25 0
-23 -6 0
17 25 0
-4 -8 0
-21 -18 0
-20 -5 0
-24 14 0
3 20 0
2 28 0
-17 27 0
18 -2 0
-11 9 0
-24 -16 0
1 -22 0
30 7 0
13 -23 0
16 15 0
26 -2 0
22 -11 0
-19 25 0
8 5 0
25 18 0
-12 17 0
-14 -29 0
21 6 0
1 23 0
-13 -27 0
-20 -12 0
-30 -26 0
-19 16 0
24 28 0
28 -3 0
-24 28 0
21 23 0
26 15 0
26 -29 0
-1 11 0
24 -3 0
