c PROBLEM_030_100_39  vars=30  clausulas=100  k=2
p cnf 30 100
16 -29 0
5 9 0
11 -23 0
8 13 0
21 18 0
17 27 0
14 15 0
-7 10 0
-7 28 0
-15 11 0
-29 27 0
-28 18 0
15 -13 0
-4 -15 0
-27 4 0
-22 -28 0
17 24 0
21 -2 0
-19 23 0
-21 -5 0
17 -6 0
-11 -28 0
23 22 0
-11 -22 0
-6 -13 0
-14 -21 0
15 2 0
4 27 0
19 18 0
3 29 0
-29 -21 0
-19 4 0
-5 -23 0
-10 3 0
-7 1 0
24 -3 0
-7 -8 0
25 18 0
-29 21 0
-24 14 0
-24 18 0
-13 4 0
2 30 0
-11 28 0
10 -8 0
14 17 0
30 -3 0
29 -4 0
16 27 0
29 7 0
29 -5 0
-20 24 0
-24 19 0
13 -21 0
3 -12 0
-30 12 0
-11 -2 0
29 16 0
14 15 0
15 -19 0
-23 -13 0
22 6 0
-13 -23 0
10 2 0
18 1 0
-20 21 0
-5 15 0
18 29 0
25 14 0
26 -1 0
12 -1 0
-7 -9 0
-23 6 0
8 -22 0
5 4 0
-1 -9 0
1 12 0
-16 27 0
15 2 0
-1 9 0
21 17 0
26 30 0
-17 -10 0
-24 13 0
-25 29 0
28 18 0
-1 -24 0
-25 9 0
20 27 0
7 -13 0
7 25 0
1 4 0
25 -19 0
-25 6 0
-14 -1 0
-23 -26 0
-2 -29 0
4 28 0
2 -23 0
10 -4 0
