c PROBLEM_030_100_16  vars=30  clausulas=100  k=2
p cnf 30 100
-22 -30 0
-9 10 0
28 21 0
23 17 0
-7 29 0
-4 -3 0
7 -6 0
25 12 0
21 -5 0
7 -16 0
-10 20 0
14 -15 0
6 -25 0
-10 19 0
-22 25 0
-6 -5 0
12 4 0
-18 25 0
-11 -17 0
-2 -27 0
1 -19 0
18 -19 0
2 -19 0
-23 -7 0
-12 22 0
-28 17 0
-1 19 0
-11 21 0
20 16 0
27 -13 0
-30 16 0
-20 -10 0
14 12 0
26 8 0
-10 17 0
3 13 0
-10 -12 0
-27 -9 0
8 -23 0
-26 -18 0
-16 14 0
-7 15 0
-30 10 0
5 12 0
-15 18 0
28 -26 0
10 13 0
-21 23 0
-4 -24 0
-29 4 0
-21 -8 0
-9 -29 0
-30 -11 0
4 -11 0
-3 -29 0
-16 -23 0
-9 16 0
24 26 0
15 -10 0
-26 -19 0
-7 -19 0
14 19 0
-10 -16 0
6 15 0
19 10 0
16 25 0
-27 -19 0
1 22 0
5 9 0
-23 22 0
11 27 0
-18 25 0
-7 -1 0
26 10 0
20 6 0
-17 -20 0
14 21 0
27 -9 0
-16 -28 0
-9 5 0
-28 -27 0
10 -2 0
1 27 0
9 23 0
-9 16 0
-11 -15 0
-3 -15 0
11 10 0
-19 -2 0
12 -3 0
17 21 0
-3 -14 0
-21 -16 0
7 -12 0
29 -8 0
5 4 0
-5 -9 0
11 -17 0
-22 -11 0
18 -7 0
