c PROBLEM_030_100_44  vars=30  clausulas=100  k=2
p cnf 30 100
-18 16 0
12 -22 0
28 -16 0
-6 -3 0
-9 8 0
-2 -26 0
-16 -29 0
29 4 0
-16 -10 0
-13 -11 0
7 -17 0
4 -16 0
-22 -23 0
23 12 0
8 1 0
-24 20 0
2 23 0
-21 23 0
6 -3 0
27 -15 0
-28 26 0
8 -26 0
4 -7 0
-24 23 0
-8 -13 0
-25 -29 0
-19 6 0
-29 -25 0
8 10 0
-14 -24 0
24 -25 0
26 6 0
21 29 0
3 6 0
30 -10 0
28 2 0
14 19 0
-23 -18 0
1 17 0
18 7 0
-9 12 0
30 2 0
23 -7 0
11 -25 0
16 14 0
-11 -10 0
-12 5 0
7 -1 0
-13 23 0
-4 8 0
1 3 0
-1 23 0
2 27 0
10 -21 0
-20 -22 0
20 -11 0
9 27 0
-29 -18 0
2 27 0
15 7 0
-5 -26 0
18 2 0
-9 -6 0
18 -2 0
-25 -22 0
-25 -11 0
-10 27 0
25 27 0
4 19 0
-28 -5 0
-2 27 0
16 27 0
-21 2 0
22 19 0
5 4 0
28 -14 0
-1 19 0
19 -18 0
-19 -1 0
-6 15 0
-5 8 0
-7 14 0
-17 26 0
-13 1 0
25 27 0
-11 -2 0
-20 25 0
-26 -30 0
-26 -20 0
-11 -26 0
-10 29 0
18 -28 0
21 8 0
-10 22 0
-1 27 0
17 2 0
-17 -22 0
-25 30 0
19 8 0
8 16 0
