c PROBLEM_030_100_22  vars=30  clausulas=100  k=2
p cnf 30 100
-4 -27 0
-28 -2 0
-1 18 0
1 -29 0
28 -19 0
-9 21 0
-13 -15 0
14 -15 0
-20 -17 0
28 -18 0
-26 15 0
-11 -26 0
-12 -10 0
26 -15 0
-12 -7 0
-7 20 0
-8 -20 0
20 5 0
-20 -29 0
29 15 0
-19 -17 0
-16 -10 0
29 -7 0
-4 -18 0
18 1 0
-9 1 0
8 -19 0
-18 -10 0
-21 -18 0
7 25 0
-26 13 0
-25 -13 0
30 2 0
-1 -23 0
-3 -19 0
22 12 0
-12 -3 0
-16 14 0
30 9 0
29 -3 0
7 1 0
19 -1 0
-7 -13 0
5 -28 0
-27 -18 0
-11 -10 0
-16 28 0
30 -27 0
4 9 0
-17 -15 0
4 -17 0
-22 -19 0
-22 23 0
-26 17 0
-19 -11 0
-28 -8 0
11 -13 0
-24 -22 0
12 3 0
23 -13 0
-30 -2 0
-8 -27 0
-5 13 0
-22 16 0
-11 -16 0
26 -28 0
10 -14 0
-14 19 0
-24 11 0
-9 16 0
-18 -24 0
-9 -5 0
-6 -9 0
-22 -26 0
-26 -8 0
-23 -30 0
-5 14 0
30 28 0
-12 5 0
8 2 0
13 -24 0
20 -4 0
24 -9 0
-1 2 0
-10 7 0
-25 -14 0
-1 17 0
-23 -30 0
26 15 0
25 21 0
-22 -23 0
-22 -10 0
15 -2 0
10 1 0
-2 -3 0
-13 -17 0
26 19 0
-4 -6 0
10 20 0
20 25 0
