c PROBLEM_030_100_25  vars=30  clausulas=100  k=2
p cnf 30 100
-3 -7 0
16 -11 0
19 -11 0
-22 30 0
11 -23 0
16 2 0
18 8 0
17 -7 0
-20 15 0
8 27 0
-27 -10 0
28 -11 0
-8 -19 0
12 -1 0
-5 4 0
-6 -29 0
21 10 0
-8 25 0
-19 7 0
11 -29 0
-9 -30 0
-11 -2 0
2 12 0
-3 -20 0
-3 -15 0
-13 -22 0
-14 8 0
18 27 0
18 -19 0
3 -5 0
-26 -27 0
23 -27 0
-6 1 0
8 29 0
18 -8 0
19 13 0
-1 5 0
21 30 0
-6 -11 0
-27 -28 0
25 4 0
-5 -4 0
-17 -26 0
15 1 0
-12 -22 0
1 -15 0
-16 -10 0
-18 -30 0
30 -28 0
-4 10 0
-25 22 0
20 13 0
-28 25 0
-23 -17 0
-30 -24 0
12 -11 0
-24 -23 0
7 10 0
23 -12 0
-6 8 0
-6 30 0
-28 -24 0
-12 -6 0
24 1 0
-19 -3 0
29 -4 0
20 -8 0
-3 -13 0
-1 -5 0
-1 -28 0
-1 -24 0
-26 1 0
-15 21 0
8 -2 0
29 3 0
-3 -4 0
-6 8 0
-17 22 0
-26 22 0
14 -13 0
-3 18 0
-26 -5 0
-10 -15 0
15 27 0
-15 25 0
18 22 0
-14 1 0
-18 6 0
-3 -19 0
23 19 0
-23 10 0
-24 20 0
-29 3 0
-15 8 0
17 28 0
-16 10 0
7 6 0
4 21 0
16 -24 0
5 -10 0
