c PROBLEM_030_100_33  vars=30  clausulas=100  k=2
p cnf 30 100
-5 -23 0
22 17 0
17 -29 0
-9 -24 0
5 6 0
-5 -13 0
22 17 0
22 8 0
20 -5 0
4 15 0
-27 4 0
-12 25 0
21 12 0
13 25 0
-29 -23 0
9 -29 0
-7 -2 0
-9 18 0
1 -23 0
-6 -12 0
-1 -20 0
18 -25 0
-22 -30 0
-19 -25 0
-2 -11 0
-20 27 0
-18 -14 0
16 -28 0
7 19 0
21 22 0
-19 5 0
-18 -28 0
-11 26 0
2 22 0
-1 -20 0
-3 -29 0
7 30 0
-26 -28 0
-1 2 0
-4 27 0
-4 1 0
-15 2 0
1 -2 0
13 -11 0
-20 11 0
29 -18 0
30 1 0
16 -21 0
26 10 0
11 26 0
-10 6 0
-15 -8 0
21 13 0
-29 24 0
-20 30 0
20 7 0
24 20 0
-7 -1 0
-23 -22 0
-8 29 0
8 6 0
28 17 0
2 -3 0
-30 -9 0
27 -29 0
-21 -20 0
-7 28 0
19 -1 0
27 21 0
-8 -6 0
-27 -29 0
19 -24 0
-16 4 0
-5 25 0
11 6 0
-4 15 0
14 7 0
4 -25 0
-12 25 0
15 24 0
-17 -13 0
27 -24 0
25 -8 0
-23 -14 0
18 -21 0
-5 -20 0
-27 -6 0
18 -26 0
-25 30 0
13 -26 0
28 27 0
7 18 0
-17 18 0
-11 4 0
15 -23 0
17 -30 0
4 -30 0
22 -3 0
13 29 0
12 27 0
