c PROBLEM_060_090_18  vars=60  clausulas=90  k=2
p cnf 60 90
38 -37 0
-37 -50 0
28 23 0
-50 -10 0
-58 2 0
21 -34 0
39 -52 0
40 21 0
16 -27 0
-32 -54 0
-41 -39 0
-33 1 0
59 46 0
-4 -37 0
44 16 0
55 -3 0
-4 -54 0
10 -41 0
52 -55 0
16 14 0
-17 2 0
-31 14 0
10 49 0
43 -30 0
47 -13 0
-57 -38 0
11 -5 0
-3 30 0
-33 20 0
-34 41 0
-4 -46 0
-4 25 0
28 29 0
-15 46 0
-31 -23 0
-42 24 0
27 -18 0
44 34 0
-26 19 0
-29 22 0
25 -54 0
-22 -37 0
-30 -35 0
51 26 0
-45 -20 0
56 -32 0
-1 34 0
-47 23 0
-3 -50 0
-9 52 0
-11 26 0
-41 -1 0
-15 -17 0
53 6 0
-39 -51 0
-48 32 0
-4 -26 0
55 -4 0
-35 -6 0
-38 -35 0
3 -44 0
-49 -45 0
-2 -52 0
13 50 0
17 -41 0
-54 13 0
24 43 0
2 -40 0
9 -42 0
11 12 0
26 56 0
-33 -35 0
-12 57 0
39 48 0
18 7 0
3 -28 0
24 -13 0
43 -56 0
-52 36 0
38 2 0
15 23 0
-36 -25 0
50 48 0
9 8 0
11 -60 0
2 60 0
54 -30 0
5 41 0
4 22 0
-14 -49 0
