c PROBLEM_060_090_13  vars=60  clausulas=90  k=2
p cnf 60 90
18 -21 0
42 -39 0
14 -30 0
-23 50 0
46 -36 0
-24 3 0
-50 -43 0
-31 -11 0
-31 -47 0
-34 -52 0
47 -32 0
44 -31 0
57 51 0
17 -1 0
50 -1 0
-13 -34 0
-33 39 0
37 16 0
19 -50 0
6 4 0
45 31 0
5 -55 0
2 29 0
-50 18 0
-33 59 0
-47 28 0
-32 -30 0
8 -27 0
-38 52 0
54 45 0
-7 58 0
-11 60 0
-18 -56 0
-31 -54 0
-13 -19 0
45 -53 0
-5 -47 0
52 -13 0
49 -53 0
-39 44 0
-3 52 0
-2 4 0
-41 -48 0
-43 -10 0
-17 42 0
-6 16 0
-28 -41 0
-8 -13 0
-28 -17 0
48 -51 0
29 8 0
-59 44 0
-3 42 0
-29 -44 0
19 52 0
38 -9 0
-43 -54 0
-35 5 0
14 -27 0
50 -1 0
-1 6 0
-36 1 0
-14 27 0
43 -26 0
35 36 0
-32 37 0
-6 -44 0
32 -3 0
-20 37 0
-4 -11 0
15 59 0
51 -23 0
-47 31 0
-41 -20 0
-6 -23 0
21 48 0
-39 -25 0
-9 51 0
57 38 0
-26 24 0
12 58 0
-22 -33 0
-25 -1 0
34 -33 0
-31 49 0
40 2 0
13 -55 0
-9 60 0
17 -51 0
-28 -51 0
