c PROBLEM_060_090_09  vars=60  clausulas=90  k=2
p cnf 60 90
-37 -27 0
18 50 0
-20 -17 0
10 13 0
39 -24 0
-27 -16 0
-29 21 0
26 14 0
-21 -9 0
-41 -24 0
-28 25 0
53 58 0
-22 -7 0
-33 47 0
41 -13 0
-36 31 0
34 20 0
-52 6 0
48 -1 0
-36 -32 0
-3 -55 0
56 -38 0
39 -50 0
-18 33 0
-34 -24 0
35 -6 0
22 25 0
27 -50 0
53 8 0
-11 -53 0
33 49 0
19 -59 0
56 -2 0
-3 30 0
-27 9 0
16 -26 0
36 -54 0
-54 -44 0
57 35 0
37 -51 0
-19 29 0
38 22 0
-39 36 0
-8 4 0
-31 -42 0
-10 7 0
-3 -39 0
-38 -23 0
-40 -51 0
17 -35 0
38 -5 0
44 12 0
57 -39 0
21 -32 0
18 30 0
-40 19 0
29 58 0
-27 -7 0
-9 17 0
47 -24 0
-16 36 0
53 -56 0
13 59 0
-35 -7 0
32 -38 0
3 15 0
-34 -52 0
-31 -15 0
-31 -49 0
-43 4 0
50 17 0
55 60 0
-44 46 0
24 -6 0
-17 57 0
-15 -49 0
-41 -28 0
55 -6 0
-3 31 0
16 -24 0
45 58 0
-58 52 0
-12 30 0
-19 34 0
12 42 0
57 -53 0
-40 57 0
50 -42 0
-28 -55 0
41 -28 0
