c PROBLEM_060_090_07  vars=60  clausulas=90  k=2
p cnf 60 90
12 -9 0
-27 2 0
-45 1 0
12 -17 0
21 17 0
-19 49 0
40 27 0
-28 -31 0
49 -11 0
-20 -2 0
35 -32 0
-45 30 0
-21 48 0
59 -25 0
55 -19 0
-59 34 0
59 10 0
7 37 0
-16 20 0
56 36 0
-12 6 0
50 -39 0
-53 31 0
-47 -50 0
8 41 0
37 -38 0
39 -32 0
-18 -43 0
-40 54 0
5 3 0
10 -18 0
-15 -54 0
49 60 0
-13 -27 0
-56 53 0
-45 -44 0
-31 8 0
9 47 0
8 -9 0
30 -14 0
21 19 0
7 -20 0
-45 33 0
-17 -30 0
21 -27 0
-6 11 0
59 -56 0
-42 54 0
44 59 0
-55 26 0
-48 1 0
-42 -31 0
-37 -60 0
-5 13 0
39 19 0
53 -9 0
-17 -43 0
-44 36 0
-11 -15 0
60 -45 0
22 -43 0
-9 37 0
54 -8 0
-27 51 0
-21 -52 0
-9 -17 0
-23 -50 0
26 -35 0
55 22 0
24 23 0
5 11 0
7 -59 0
-41 -58 0
13 56 0
-27 -15 0
-3 23 0
58 -41 0
-34 54 0
-53 44 0
-46 -39 0
-51 46 0
46 30 0
-37 -18 0
57 3 0
4 28 0
-1 40 0
-28 21 0
29 28 0
34 20 0
38 -58 0
