c PROBLEM_060_090_21  vars=60  clausulas=90  k=2
p cnf 60 90
11 60 0
58 -6 0
53 -24 0
-17 8 0
-36 -24 0
-45 -19 0
28 -4 0
-59 -40 0
-17 3 0
55 13 0
44 -19 0
-41 -34 0
60 42 0
-35 -49 0
14 26 0
59 -6 0
39 15 0
25 -13 0
-22 -43 0
-29 -35 0
-12 52 0
-39 6 0
-2 -44 0
-57 -21 0
21 4 0
-39 -9 0
31 -22 0
22 58 0
1 16 0
32 55 0
-39 13 0
58 41 0
-28 -43 0
-46 51 0
5 -56 0
-51 56 0
-29 31 0
-40 -25 0
-10 54 0
7 -49 0
33 41 0
-56 -37 0
3 5 0
44 30 0
-32 -58 0
37 -1 0
9 15 0
-10 -5 0
38 52 0
41 -18 0
-9 -40 0
44 -11 0
44 35 0
-58 -51 0
7 21 0
-50 -31 0
-45 47 0
9 57 0
23 32 0
-44 43 0
-26 1 0
14 -28 0
32 -25 0
29 35 0
51 -6 0
-38 -28 0
-60 -23 0
-50 -13 0
-14 -13 0
46 23 0
54 23 0
-6 38 0
24 -38 0
-27 33 0
-42 31 0
57 -53 0
1 -53 0
-48 37 0
43 25 0
43 11 0
-30 16 0
37 -7 0
24 -54 0
-42 -27 0
-54 14 0
-43 1 0
36 -20 0
35 57 0
50 -40 0
23 26 0
