c PROBLEM_060_090_01  vars=60  clausulas=90  k=2
p cnf 60 90
-42 25 0
6 -57 0
22 -24 0
20 16 0
-28 -37 0
-11 4 0
-45 -7 0
24 -33 0
-26 52 0
-29 -3 0
57 -29 0
-47 -39 0
16 -8 0
39 40 0
-12 -17 0
-13 -40 0
-56 -17 0
5 -23 0
13 -31 0
33 59 0
20 -2 0
-19 -58 0
43 -32 0
10 -50 0
-49 48 0
1 24 0
-37 -60 0
40 25 0
-52 -26 0
-31 -15 0
46 42 0
-53 44 0
-14 -40 0
19 41 0
35 54 0
-55 -34 0
-50 -2 0
9 -49 0
8 -54 0
57 -51 0
21 41 0
-10 -32 0
36 -60 0
15 -48 0
37 -18 0
53 -9 0
-50 -54 0
-27 33 0
51 26 0
14 -53 0
-42 5 0
-26 -9 0
12 25 0
-44 -21 0
-55 50 0
-6 42 0
8 -9 0
-30 52 0
-56 -40 0
1 17 0
-58 51 0
25 16 0
3 6 0
7 -11 0
-1 -56 0
24 -23 0
-34 57 0
-12 4 0
27 8 0
-19 -18 0
-59 38 0
2 -11 0
-50 -31 0
54 60 0
-55 -18 0
-30 -14 0
-49 12 0
28 21 0
46 7 0
-41 -4 0
-47 53 0
-11 -13 0
32 -56 0
-34 -49 0
-20 -33 0
-60 -36 0
-51 1 0
36 33 0
-50 -45 0
-3 31 0
