c PROBLEM_060_090_25  vars=60  clausulas=90  k=2
p cnf 60 90
56 14 0
34 42 0
22 43 0
41 -11 0
51 -33 0
35 32 0
-32 -24 0
-13 -55 0
20 -55 0
25 21 0
-46 -34 0
26 -50 0
33 -35 0
-37 16 0
-43 -6 0
7 41 0
-48 57 0
47 32 0
12 -27 0
-50 24 0
44 47 0
-58 57 0
27 28 0
28 27 0
-20 -45 0
-53 44 0
53 10 0
-58 -16 0
-45 -12 0
-60 -13 0
50 24 0
24 8 0
21 46 0
-58 10 0
44 42 0
53 32 0
7 52 0
-7 -43 0
41 -29 0
-42 29 0
11 -34 0
-48 28 0
-52 17 0
-51 -18 0
49 54 0
22 57 0
-42 21 0
-12 -38 0
1 3 0
-8 -34 0
-42 -28 0
53 -58 0
5 -23 0
20 53 0
-21 39 0
36 7 0
2 -18 0
-59 9 0
-20 -19 0
42 -49 0
-42 23 0
31 2 0
-21 10 0
21 -56 0
45 52 0
-12 -11 0
23 38 0
30 -31 0
29 -40 0
-32 17 0
17 14 0
43 25 0
21 -41 0
-42 -39 0
14 -50 0
-50 -4 0
55 -6 0
-41 46 0
24 59 0
5 54 0
-28 19 0
-11 -15 0
29 -44 0
-9 1 0
-34 35 0
-26 -2 0
-18 -21 0
46 1 0
47 35 0
10 -16 0
