c PROBLEM_060_090_26  vars=60  clausulas=90  k=2
p cnf 60 90
-14 23 0
-2 -39 0
6 9 0
17 -32 0
2 -26 0
-49 42 0
-34 50 0
-15 45 0
31 30 0
-11 -29 0
9 -10 0
-32 14 0
49 -25 0
33 -3 0
31 49 0
54 46 0
28 37 0
-29 38 0
-44 50 0
16 52 0
21 37 0
-1 -13 0
17 18 0
-2 18 0
-53 -9 0
20 -28 0
54 7 0
-15 -33 0
-17 -10 0
21 -31 0
56 -13 0
60 -31 0
-8 60 0
1 -2 0
38 -45 0
-43 -12 0
15 36 0
22 -51 0
-40 55 0
-13 28 0
43 12 0
59 8 0
19 2 0
41 -40 0
-58 -34 0
56 30 0
-6 -1 0
52 51 0
-20 17 0
-38 -45 0
57 38 0
9 48 0
60 22 0
-52 -53 0
-46 -6 0
-57 -6 0
28 31 0
39 18 0
14 -28 0
3 -51 0
-32 27 0
1 -30 0
38 16 0
57 15 0
59 29 0
-14 -59 0
-9 29 0
-37 24 0
-25 19 0
34 43 0
-19 -28 0
-26 43 0
-29 59 0
-45 40 0
16 -49 0
32 16 0
48 -59 0
5 -58 0
-25 -54 0
23 -9 0
32 35 0
-4 42 0
-14 24 0
15 -44 0
-54 -19 0
-17 -16 0
47 -57 0
-32 -51 0
-9 25 0
17 -55 0
