c PROBLEM_060_090_35  vars=60  clausulas=90  k=2
p cnf 60 90
6 40 0
-25 -2 0
27 -6 0
-40 -48 0
-43 -18 0
-54 -31 0
19 48 0
16 -1 0
36 -25 0
-12 -26 0
-16 -11 0
-23 -53 0
-52 5 0
49 59 0
-28 5 0
-38 -35 0
-54 -19 0
34 -23 0
-56 60 0
-6 -8 0
54 38 0
15 -24 0
9 -42 0
-25 -40 0
42 -9 0
-42 -40 0
-46 14 0
-6 -39 0
52 -19 0
7 13 0
46 30 0
23 -50 0
-1 -9 0
-43 15 0
57 -50 0
-6 -33 0
-10 -41 0
45 46 0
17 30 0
12 41 0
54 -37 0
43 47 0
-45 -18 0
20 -56 0
32 48 0
-11 50 0
50 22 0
-37 -36 0
-39 40 0
-57 28 0
-46 36 0
-3 -55 0
42 44 0
18 24 0
-47 -23 0
-44 40 0
-2 38 0
9 -26 0
-7 56 0
-13 -49 0
-1 -37 0
-4 -13 0
-29 -54 0
-25 23 0
56 -21 0
-35 -10 0
32 10 0
-59 2 0
32 44 0
-23 -55 0
21 52 0
-34 -55 0
2 -52 0
-60 -58 0
27 40 0
14 31 0
44 3 0
35 41 0
59 -38 0
-56 14 0
34 -49 0
-16 -51 0
-25 -46 0
30 -3 0
43 -47 0
-35 17 0
-58 13 0
20 -26 0
16 -56 0
31 6 0
