c PROBLEM_060_090_11  vars=60  clausulas=90  k=2
p cnf 60 90
21 15 0
-29 56 0
-5 -47 0
-1 23 0
35 58 0
-48 -17 0
-56 3 0
9 -36 0
-23 34 0
13 57 0
11 -3 0
-26 -22 0
54 37 0
-16 -12 0
-24 44 0
-31 19 0
13 -8 0
7 -27 0
-11 -30 0
-7 -14 0
-59 -7 0
50 -36 0
-59 -36 0
59 -13 0
6 -14 0
-45 -30 0
39 30 0
-38 -3 0
48 -5 0
23 -6 0
-29 40 0
-20 -48 0
-38 -44 0
13 5 0
3 -56 0
-55 -26 0
-51 -45 0
-1 51 0
-43 -54 0
-17 -42 0
-34 -58 0
41 33 0
-59 -52 0
56 -40 0
-23 -36 0
52 -33 0
-42 -37 0
19 10 0
-35 -19 0
-37 24 0
-49 -6 0
27 -22 0
35 4 0
38 19 0
-47 22 0
-53 -43 0
42 36 0
57 53 0
8 50 0
23 -25 0
-5 -39 0
36 -12 0
-7 -20 0
10 31 0
17 4 0
-14 34 0
-25 -33 0
28 -22 0
-13 -40 0
-50 30 0
-16 26 0
-20 18 0
17 -10 0
-11 60 0
-20 27 0
-15 -48 0
36 -11 0
48 40 0
-32 9 0
-33 -2 0
30 46 0
1 -28 0
-52 42 0
43 -47 0
49 -21 0
57 -16 0
-10 16 0
24 8 0
-57 -32 0
44 -33 0
