c PROBLEM_060_090_15  vars=60  clausulas=90  k=2
p cnf 60 90
-31 -1 0
-23 29 0
-19 8 0
-51 11 0
29 13 0
1 -28 0
41 -49 0
25 -27 0
-39 31 0
-20 8 0
53 18 0
-31 26 0
15 55 0
-4 5 0
57 56 0
2 -13 0
-9 -31 0
47 -10 0
-7 17 0
-59 43 0
17 45 0
-50 38 0
-6 -32 0
47 59 0
-35 -58 0
-60 -29 0
-34 -59 0
-35 -13 0
-13 -30 0
-22 -48 0
7 20 0
-16 -60 0
-27 31 0
-17 19 0
41 -30 0
35 -31 0
-60 44 0
-13 37 0
46 35 0
60 52 0
10 -3 0
-20 14 0
2 -48 0
-59 -54 0
45 48 0
45 11 0
-35 26 0
-35 -31 0
43 51 0
28 -15 0
-34 -22 0
-37 -50 0
40 -18 0
21 26 0
44 16 0
25 18 0
-51 -1 0
-55 -3 0
15 29 0
4 -42 0
23 31 0
-32 14 0
-55 27 0
38 29 0
9 -5 0
45 -56 0
3 -25 0
-50 -3 0
-11 -39 0
-45 -23 0
13 15 0
33 -18 0
15 7 0
-50 -35 0
42 -39 0
56 31 0
-48 -9 0
48 -25 0
8 -32 0
20 21 0
25 5 0
-28 -14 0
-16 -43 0
-13 -10 0
17 60 0
-46 -32 0
36 -38 0
-12 -25 0
-50 -49 0
-58 -24 0
