c PROBLEM_060_090_30  vars=60  clausulas=90  k=2
p cnf 60 90
29 56 0
-40 30 0
1 -16 0
2 -48 0
57 -4 0
51 -40 0
-57 -22 0
-1 -46 0
-8 52 0
-49 21 0
51 -60 0
-60 51 0
41 2 0
12 34 0
45 -48 0
30 -2 0
42 -12 0
-7 -19 0
13 -12 0
-15 29 0
-24 14 0
-49 -21 0
-35 -55 0
-33 -12 0
-14 -6 0
-60 -35 0
-38 2 0
-47 49 0
-34 -4 0
21 -36 0
3 9 0
24 44 0
-24 -27 0
59 16 0
6 11 0
-35 -17 0
-34 -13 0
-48 36 0
-19 31 0
-47 45 0
-25 -24 0
5 53 0
-39 57 0
-43 58 0
-9 -37 0
52 -37 0
49 42 0
-10 45 0
-30 -46 0
31 40 0
-29 18 0
-53 4 0
46 -44 0
-15 -31 0
-31 37 0
1 32 0
50 -51 0
25 -46 0
19 10 0
16 42 0
-31 -60 0
5 -54 0
23 -13 0
-32 33 0
45 55 0
-26 28 0
-45 -7 0
-25 -46 0
-15 50 0
18 23 0
-17 -25 0
51 46 0
58 27 0
26 -57 0
55 -35 0
-3 -17 0
-5 46 0
48 -21 0
22 44 0
39 50 0
6 -28 0
-38 -30 0
59 10 0
-11 -4 0
19 21 0
10 -54 0
-58 -60 0
35 -45 0
-46 -22 0
-20 -3 0
