c PROBLEM_060_090_48  vars=60  clausulas=90  k=2
p cnf 60 90
43 -10 0
13 28 0
-38 54 0
-58 51 0
12 -4 0
-3 28 0
13 -31 0
33 53 0
-43 29 0
-23 45 0
41 -43 0
-60 -50 0
7 -48 0
-57 6 0
-21 3 0
28 -39 0
30 56 0
-10 12 0
-52 48 0
-7 -59 0
-31 -57 0
-12 -17 0
10 -37 0
-4 38 0
39 -50 0
-5 7 0
40 -38 0
-56 -47 0
-36 44 0
-20 14 0
-24 11 0
60 -48 0
7 33 0
9 54 0
49 5 0
8 -37 0
-43 -22 0
34 -47 0
35 51 0
5 38 0
-42 2 0
23 36 0
-32 -42 0
22 -54 0
12 -52 0
-9 -5 0
-25 -21 0
34 47 0
-29 -28 0
15 -46 0
-51 26 0
29 52 0
24 -12 0
49 26 0
60 34 0
-56 -44 0
-2 54 0
29 20 0
-51 -34 0
8 -28 0
-52 -35 0
41 21 0
42 -50 0
4 -38 0
-59 2 0
-25 33 0
-53 34 0
-28 58 0
-33 -53 0
-1 -59 0
-57 12 0
-13 -20 0
-36 -59 0
10 -27 0
-11 31 0
-12 -31 0
-28 1 0
-33 -19 0
-27 29 0
-8 -19 0
-8 -32 0
19 36 0
55 17 0
24 6 0
-25 -16 0
52 -37 0
-18 12 0
40 -16 0
29 7 0
-15 -48 0
