c PROBLEM_060_090_34  vars=60  clausulas=90  k=2
p cnf 60 90
23 -6 0
34 -60 0
-49 -47 0
-35 36 0
24 -57 0
3 -26 0
-3 18 0
50 54 0
-42 -27 0
-39 -52 0
-58 -16 0
-51 -15 0
8 -22 0
4 44 0
-4 47 0
-16 -39 0
6 4 0
29 32 0
-60 46 0
53 1 0
57 -49 0
16 -33 0
-44 -17 0
22 -31 0
26 -40 0
2 4 0
30 6 0
2 1 0
-39 9 0
56 -13 0
-37 -58 0
48 58 0
-44 14 0
52 5 0
-42 5 0
-56 12 0
-10 59 0
50 58 0
-14 -38 0
23 -7 0
-44 48 0
-56 4 0
19 30 0
8 47 0
-24 -23 0
10 41 0
21 -17 0
14 55 0
-53 -14 0
2 54 0
-1 56 0
-51 -16 0
-35 20 0
3 -45 0
-7 57 0
-56 -48 0
-58 -19 0
-10 -28 0
-9 58 0
5 30 0
-11 -37 0
41 -19 0
25 44 0
-31 18 0
-22 -6 0
-5 -3 0
30 35 0
-32 -39 0
43 -53 0
60 -45 0
15 52 0
-40 -3 0
-34 45 0
29 -53 0
-12 32 0
23 -4 0
23 -25 0
-3 14 0
57 -59 0
-55 -54 0
40 -20 0
58 35 0
-52 32 0
38 58 0
51 -47 0
8 59 0
-35 4 0
-34 12 0
57 20 0
32 -17 0
