c PROBLEM_060_090_03  vars=60  clausulas=90  k=2
p cnf 60 90
10 -56 0
20 -18 0
-59 -44 0
50 -51 0
-11 19 0
38 -22 0
-17 12 0
-7 3 0
-58 42 0
-6 1 0
-28 33 0
8 -11 0
-54 -12 0
15 -2 0
-59 -57 0
-14 11 0
24 -26 0
21 33 0
23 34 0
-25 -15 0
-18 -53 0
11 52 0
-33 -48 0
57 -9 0
27 55 0
-39 -3 0
-32 36 0
-30 -17 0
-34 27 0
-25 18 0
1 39 0
-47 -32 0
7 -36 0
18 7 0
-29 25 0
26 22 0
15 46 0
-21 -9 0
2 -23 0
-35 42 0
-44 -30 0
11 -22 0
38 16 0
-22 -28 0
38 26 0
-41 -59 0
-27 5 0
31 -5 0
36 -43 0
48 -24 0
-10 -48 0
-37 -36 0
-47 -41 0
21 -7 0
55 -24 0
-23 46 0
-16 26 0
43 37 0
51 4 0
-57 1 0
57 36 0
53 60 0
-47 42 0
-5 6 0
50 13 0
-35 -13 0
12 15 0
38 15 0
-26 -30 0
43 60 0
-22 -27 0
7 40 0
36 24 0
-14 45 0
17 -28 0
35 53 0
58 -29 0
58 -54 0
-42 -56 0
19 7 0
8 4 0
-40 8 0
-32 -34 0
27 -49 0
-55 -36 0
-31 24 0
-59 -31 0
43 23 0
-54 20 0
13 23 0
