c PROBLEM_060_090_33  vars=60  clausulas=90  k=2
p cnf 60 90
-48 -13 0
-51 -39 0
12 10 0
-35 -22 0
24 -33 0
-7 -42 0
53 28 0
-31 -36 0
-6 21 0
-55 8 0
48 -46 0
-5 -43 0
15 34 0
-18 -2 0
4 -56 0
9 45 0
39 3 0
-51 25 0
-47 -16 0
-46 -20 0
-9 -10 0
26 24 0
-2 -16 0
52 1 0
60 -37 0
-14 -26 0
-12 24 0
-36 -6 0
-27 32 0
7 41 0
-14 16 0
14 -57 0
-18 25 0
43 -30 0
12 17 0
-13 -28 0
-18 -57 0
-39 28 0
19 -49 0
-19 32 0
-59 34 0
37 -45 0
52 11 0
-19 -48 0
-59 36 0
23 -27 0
-43 -8 0
-23 -44 0
36 55 0
-34 -50 0
-26 -7 0
-55 3 0
-13 47 0
38 32 0
5 -46 0
58 40 0
42 17 0
-9 37 0
2 15 0
50 -52 0
52 20 0
-46 -51 0
57 17 0
-43 4 0
21 60 0
51 -58 0
-55 27 0
-6 -28 0
-17 12 0
33 1 0
58 -15 0
-55 -59 0
58 39 0
45 32 0
29 -56 0
-39 31 0
38 -6 0
-58 40 0
60 28 0
-37 -18 0
41 -36 0
-60 58 0
34 -47 0
40 -10 0
54 -34 0
52 -59 0
-18 55 0
40 -54 0
9 -60 0
-6 14 0
