c PROBLEM_060_090_43  vars=60  clausulas=90  k=2
p cnf 60 90
59 -29 0
44 42 0
30 37 0
50 -52 0
-56 -18 0
30 -5 0
18 -13 0
-35 -46 0
59 33 0
10 -27 0
44 -45 0
-55 6 0
29 43 0
13 -24 0
11 48 0
5 -29 0
-40 36 0
33 35 0
-31 10 0
-3 2 0
48 23 0
56 -8 0
-4 9 0
-18 -35 0
-29 -52 0
-5 7 0
-25 11 0
40 25 0
-55 12 0
-18 22 0
44 -13 0
11 35 0
-23 -30 0
-53 36 0
-36 -34 0
-2 57 0
50 23 0
35 20 0
-51 57 0
44 9 0
-39 -49 0
-1 54 0
38 -53 0
39 26 0
6 -34 0
55 -23 0
56 -26 0
-59 -40 0
47 49 0
-30 -18 0
19 15 0
-3 -43 0
46 36 0
22 -3 0
12 9 0
-45 -28 0
19 20 0
21 48 0
-24 -52 0
-14 -47 0
20 -16 0
46 59 0
-4 -49 0
25 -47 0
-28 51 0
-19 6 0
-56 60 0
-18 55 0
-4 33 0
32 27 0
-16 13 0
-19 -51 0
32 -13 0
-21 35 0
8 24 0
37 -31 0
30 59 0
-41 -4 0
44 56 0
-27 14 0
-58 1 0
14 -19 0
49 -17 0
32 -15 0
-7 16 0
-41 48 0
-2 17 0
5 38 0
-23 -20 0
29 48 0
