c PROBLEM_060_090_29  vars=60  clausulas=90  k=2
p cnf 60 90
17 51 0
-43 30 0
-52 -14 0
27 -36 0
46 56 0
-41 31 0
1 18 0
46 1 0
-22 -1 0
-39 36 0
-46 60 0
-54 -38 0
-44 -55 0
16 -19 0
-40 8 0
53 3 0
39 38 0
31 11 0
23 60 0
8 27 0
6 -47 0
41 -42 0
37 -12 0
-11 -21 0
32 -22 0
59 -4 0
-11 -48 0
27 -9 0
-1 -43 0
-21 -10 0
-22 16 0
-7 -21 0
-56 22 0
14 -46 0
57 50 0
-26 18 0
-24 2 0
8 33 0
-50 -23 0
43 -53 0
30 13 0
-16 -20 0
40 26 0
-15 -35 0
-35 -58 0
11 29 0
-26 -6 0
40 -57 0
44 14 0
-53 -1 0
40 -21 0
-15 34 0
-6 33 0
-14 56 0
-51 48 0
48 -55 0
-43 60 0
16 19 0
59 31 0
-7 -25 0
14 31 0
-51 45 0
25 54 0
9 11 0
49 -38 0
60 -49 0
36 -58 0
-59 -3 0
29 -10 0
23 -55 0
5 -20 0
-21 -31 0
-22 39 0
-35 22 0
43 -34 0
49 -38 0
59 -10 0
-8 -47 0
7 28 0
16 21 0
14 -20 0
56 53 0
-58 -38 0
45 -17 0
22 25 0
53 23 0
7 -19 0
8 28 0
-23 -9 0
-13 49 0
