c PROBLEM_060_090_46  vars=60  clausulas=90  k=2
p cnf 60 90
-4 -30 0
-40 -5 0
-13 10 0
-4 -26 0
23 25 0
-18 9 0
-22 -60 0
-11 47 0
43 -17 0
-46 35 0
11 -24 0
17 23 0
9 -40 0
-9 20 0
-55 53 0
3 18 0
-48 6 0
6 49 0
17 -16 0
-58 -60 0
50 -52 0
49 -31 0
31 -39 0
59 -4 0
28 -41 0
-45 21 0
-17 -34 0
25 -54 0
-20 -37 0
29 22 0
4 7 0
51 -7 0
33 11 0
27 23 0
-1 -21 0
-13 -37 0
-43 -58 0
41 33 0
-59 56 0
26 -8 0
17 -57 0
-42 -34 0
8 45 0
42 46 0
51 -19 0
-41 -35 0
-52 32 0
45 44 0
-51 50 0
-19 -45 0
-46 -44 0
-52 -47 0
8 -12 0
-27 49 0
40 -15 0
-1 6 0
14 -23 0
-15 -49 0
59 15 0
35 58 0
37 -9 0
-15 33 0
4 29 0
-34 3 0
26 50 0
-47 -1 0
49 -12 0
58 -18 0
34 10 0
58 2 0
-53 -16 0
9 -16 0
54 5 0
20 -4 0
33 16 0
-19 38 0
31 5 0
54 -16 0
-42 -2 0
-33 -15 0
19 51 0
25 50 0
-24 -7 0
-30 39 0
57 -32 0
-5 -36 0
-48 -59 0
-14 -24 0
-23 -55 0
40 -45 0
