c PROBLEM_060_090_02  vars=60  clausulas=90  k=2
p cnf 60 90
11 -30 0
22 38 0
-37 26 0
-11 -39 0
20 -46 0
1 -30 0
46 -48 0
3 -17 0
49 -59 0
13 58 0
60 -28 0
-31 -50 0
25 -28 0
6 53 0
50 32 0
44 26 0
-35 -59 0
58 -43 0
-38 -31 0
38 -59 0
-42 -5 0
25 17 0
-26 -8 0
25 47 0
7 -34 0
-50 -52 0
-11 -33 0
-2 -20 0
-59 49 0
29 -10 0
35 -7 0
-5 37 0
37 -13 0
3 13 0
6 -60 0
40 -35 0
-33 13 0
4 21 0
3 -56 0
44 29 0
25 -54 0
14 8 0
35 -45 0
-7 -57 0
43 53 0
60 37 0
-4 -29 0
41 47 0
-53 30 0
55 -10 0
7 -19 0
18 50 0
36 -14 0
53 -46 0
-39 -6 0
29 45 0
-9 -27 0
-16 -51 0
-1 -35 0
32 12 0
4 48 0
-23 -40 0
54 15 0
51 -26 0
-25 6 0
33 5 0
46 -45 0
57 -29 0
34 36 0
-24 32 0
-54 -40 0
-19 -21 0
-15 56 0
-50 -51 0
56 38 0
-8 44 0
33 46 0
-41 -36 0
3 55 0
42 -59 0
-35 -16 0
-20 -54 0
-5 26 0
20 -28 0
33 54 0
-58 -32 0
-29 -16 0
-22 -49 0
-41 32 0
-31 55 0
