c PROBLEM_060_090_31  vars=60  clausulas=90  k=2
p cnf 60 90
-41 18 0
52 -22 0
-59 33 0
-12 -42 0
-47 -31 0
19 3 0
5 -41 0
48 -54 0
-8 1 0
-47 -27 0
-44 46 0
10 36 0
-2 18 0
42 12 0
16 -28 0
59 -48 0
-53 -14 0
20 -17 0
54 1 0
-3 -7 0
-5 -58 0
-37 -13 0
56 -28 0
45 -24 0
-7 -49 0
26 -12 0
55 18 0
14 34 0
5 -35 0
-55 56 0
-45 -22 0
47 -39 0
-55 32 0
34 49 0
-1 -54 0
-23 -38 0
-27 -25 0
-11 8 0
-56 43 0
26 -36 0
41 -54 0
9 -50 0
57 40 0
-55 15 0
-59 3 0
7 -36 0
31 39 0
-4 -11 0
-11 -16 0
-22 6 0
-33 53 0
-31 34 0
8 -11 0
18 12 0
13 -56 0
-21 -30 0
-57 -11 0
21 -58 0
48 2 0
-39 -21 0
15 52 0
-21 35 0
25 2 0
-41 7 0
-42 40 0
-17 39 0
-2 -36 0
-3 -2 0
-21 -44 0
7 52 0
-22 -38 0
20 1 0
-32 -5 0
-7 58 0
22 20 0
23 34 0
45 -59 0
56 52 0
-12 -17 0
36 -29 0
26 39 0
29 27 0
19 -28 0
21 -20 0
39 17 0
-28 60 0
-46 43 0
51 43 0
-13 -48 0
17 35 0
