c PROBLEM_060_090_04  vars=60  clausulas=90  k=2
p cnf 60 90
-34 -39 0
-27 52 0
-37 34 0
-53 23 0
-18 4 0
-22 13 0
-24 53 0
-43 18 0
-12 59 0
-28 -37 0
-36 -23 0
-42 17 0
8 48 0
-32 30 0
-42 -56 0
55 -26 0
41 17 0
-47 -60 0
38 24 0
42 25 0
48 -27 0
-36 19 0
-53 -44 0
-24 28 0
60 29 0
12 -23 0
15 -58 0
-38 56 0
56 -18 0
-42 -4 0
12 -59 0
-48 -43 0
-44 -4 0
-46 -6 0
-5 47 0
11 23 0
47 -39 0
-55 49 0
-50 -20 0
-53 35 0
11 -52 0
33 -60 0
-26 57 0
-1 -30 0
5 -32 0
-37 -38 0
15 17 0
14 32 0
21 32 0
-16 -49 0
38 50 0
15 21 0
17 -34 0
-25 -49 0
6 -10 0
24 55 0
2 -10 0
-21 58 0
26 19 0
-41 -37 0
-34 20 0
-14 45 0
23 -33 0
19 45 0
5 10 0
26 -44 0
-12 -58 0
-21 -3 0
42 58 0
-6 -3 0
-36 -8 0
-33 -6 0
-21 11 0
49 -54 0
31 2 0
20 1 0
-4 -40 0
1 46 0
-33 -7 0
9 52 0
15 26 0
-40 50 0
40 51 0
55 50 0
-42 8 0
-19 -17 0
-7 2 0
-43 -46 0
-27 -59 0
-7 15 0
