c PROBLEM_060_090_38  vars=60  clausulas=90  k=2
p cnf 60 90
-41 17 0
48 20 0
-47 -58 0
15 -11 0
-47 -53 0
16 27 0
-4 54 0
-37 16 0
1 45 0
-27 -4 0
58 -16 0
-40 -22 0
-47 49 0
1 -33 0
33 9 0
43 -6 0
57 -28 0
2 -50 0
36 11 0
55 25 0
-14 -10 0
3 25 0
-28 21 0
37 32 0
13 -15 0
57 49 0
-24 -56 0
22 -44 0
-35 -12 0
-25 34 0
5 -3 0
11 -42 0
-38 46 0
-60 51 0
45 8 0
-49 48 0
-18 -39 0
-12 -27 0
-14 -13 0
28 -54 0
-43 8 0
-37 -8 0
59 34 0
-30 26 0
-25 -51 0
33 47 0
40 55 0
-15 27 0
-58 35 0
40 1 0
50 8 0
-36 44 0
53 -19 0
10 -37 0
25 23 0
-58 30 0
59 27 0
-31 13 0
51 -6 0
39 51 0
3 39 0
37 -55 0
-45 14 0
-33 -4 0
-45 23 0
-30 -15 0
38 -12 0
-18 26 0
-51 24 0
-42 -9 0
-54 26 0
33 40 0
37 46 0
-6 -8 0
36 -25 0
8 23 0
-18 -52 0
-40 31 0
23 43 0
56 -53 0
19 39 0
25 -30 0
27 6 0
-46 -6 0
-15 18 0
-21 48 0
-7 34 0
-26 -47 0
8 -34 0
45 -29 0
