c PROBLEM_060_090_44  vars=60  clausulas=90  k=2
p cnf 60 90
41 43 0
42 -44 0
-60 -42 0
13 -31 0
11 -14 0
-8 -40 0
-56 12 0
-10 38 0
23 18 0
-46 -58 0
-15 57 0
35 -26 0
-16 19 0
-23 -38 0
-12 -35 0
-1 5 0
-46 60 0
9 -58 0
-37 -50 0
26 39 0
-6 32 0
45 -29 0
59 22 0
16 -44 0
-20 -6 0
57 33 0
26 -33 0
-51 -55 0
24 -56 0
40 10 0
-13 2 0
-42 -21 0
-9 55 0
-37 -30 0
16 1 0
51 1 0
-24 14 0
-41 -36 0
-18 2 0
13 3 0
-31 -17 0
37 -21 0
-25 -40 0
21 -29 0
20 -27 0
37 -45 0
-14 -19 0
49 15 0
-2 35 0
50 18 0
48 45 0
-2 28 0
-59 -25 0
-8 45 0
-26 -10 0
26 -40 0
54 -20 0
52 -30 0
39 -47 0
-1 21 0
11 4 0
49 42 0
13 17 0
-20 -37 0
48 -12 0
19 36 0
42 29 0
-17 -32 0
55 28 0
34 31 0
-43 -32 0
44 -54 0
21 -47 0
6 -38 0
-33 25 0
-50 -3 0
56 29 0
52 -51 0
-7 42 0
24 -28 0
-15 -9 0
-39 7 0
-4 -58 0
3 -54 0
-4 2 0
12 41 0
-51 -17 0
-51 -53 0
42 -54 0
48 -60 0
