c PROBLEM_025_090_02  vars=25  clausulas=90  k=2
p cnf 25 90
5 -18 0
-14 22 0
-11 -24 0
-17 8 0
-23 -25 0
-13 -19 0
-9 2 0
14 4 0
15 -6 0
25 -17 0
-7 18 0
-4 -10 0
8 -11 0
-3 -17 0
9 -10 0
-19 6 0
18 -7 0
-17 -1 0
-1 -13 0
-3 -11 0
9 17 0
24 25 0
15 -8 0
2 -8 0
14 2 0
-17 -5 0
-5 -23 0
21 -3 0
-9 -4 0
-20 21 0
21 9 0
-9 -25 0
-19 15 0
15 24 0
-12 10 0
-12 -4 0
2 20 0
-3 19 0
4 1 0
-12 22 0
12 -24 0
13 25 0
5 8 0
-2 15 0
-21 -1 0
17 3 0
-2 3 0
2 -7 0
2 -1 0
1 -24 0
-8 4 0
19 -5 0
20 -11 0
-20 -8 0
11 -16 0
19 -14 0
-3 25 0
-8 2 0
-22 -2 0
-4 -9 0
12 15 0
3 19 0
12 25 0
-25 18 0
-3 -15 0
1 14 0
-4 -15 0
-11 21 0
23 -22 0
19 -17 0
22 16 0
-11 17 0
-6 19 0
-15 -4 0
-14 16 0
8 20 0
6 17 0
5 4 0
-20 -10 0
-11 -18 0
-22 10 0
-22 16 0
24 12 0
23 6 0
-12 9 0
6 24 0
8 15 0
-2 8 0
5 -10 0
-21 -7 0
