c PROBLEM_025_090_39  vars=25  clausulas=90  k=2
p cnf 25 90
-21 13 0
-3 5 0
-16 -1 0
-18 -5 0
-25 -23 0
-7 -22 0
16 25 0
-17 -11 0
-9 25 0
-4 -20 0
19 -6 0
-16 -15 0
-14 18 0
-12 -21 0
-16 -20 0
2 6 0
-2 -12 0
24 -16 0
14 -3 0
24 -1 0
-21 -18 0
20 -15 0
-1 -13 0
13 -22 0
21 -9 0
-12 8 0
9 17 0
7 -15 0
-23 7 0
-8 9 0
20 -16 0
-22 19 0
24 8 0
-22 17 0
2 -5 0
-7 4 0
-8 25 0
-3 10 0
11 5 0
-9 -20 0
11 -14 0
-12 14 0
15 -21 0
7 17 0
-19 7 0
20 -14 0
1 -8 0
-14 16 0
-11 20 0
-2 -6 0
-2 20 0
-24 -13 0
5 -9 0
-15 -8 0
13 1 0
25 -3 0
-12 13 0
15 6 0
-4 -17 0
-16 -20 0
8 23 0
4 1 0
1 -20 0
-10 7 0
21 -13 0
-3 6 0
6 -23 0
-9 21 0
-17 -15 0
-14 -19 0
22 -3 0
11 20 0
24 11 0
-20 -22 0
-16 5 0
-4 -7 0
6 14 0
7 19 0
-19 5 0
-18 -2 0
-3 10 0
3 -20 0
5 6 0
-19 -8 0
-23 14 0
13 -7 0
10 2 0
-14 15 0
8 19 0
-20 17 0
