c PROBLEM_025_090_18  vars=25  clausulas=90  k=2
p cnf 25 90
-3 -7 0
6 11 0
-6 -13 0
-18 20 0
-23 -10 0
7 -4 0
-18 -25 0
-20 -2 0
10 -22 0
6 -25 0
1 -21 0
12 21 0
7 -4 0
-10 -8 0
-22 -8 0
15 -13 0
11 12 0
4 19 0
12 4 0
8 14 0
23 4 0
-1 -22 0
-16 17 0
-21 9 0
8 17 0
13 14 0
-9 -2 0
3 -21 0
-9 1 0
-19 22 0
-18 19 0
4 -13 0
-23 -8 0
18 -7 0
-14 16 0
4 5 0
-24 -9 0
-2 -18 0
-3 14 0
-19 13 0
9 -24 0
10 16 0
16 19 0
20 -19 0
-17 4 0
-20 25 0
-7 2 0
-24 17 0
-16 -2 0
13 -24 0
-10 -4 0
25 -21 0
14 -11 0
3 25 0
-25 -3 0
-13 -24 0
5 23 0
-12 -22 0
21 13 0
-11 -20 0
-18 23 0
-8 -2 0
7 3 0
3 -7 0
11 9 0
4 -17 0
13 -11 0
-2 -3 0
19 -3 0
-19 16 0
6 21 0
-12 24 0
22 13 0
-12 -20 0
14 -23 0
3 18 0
-5 -2 0
-20 15 0
16 13 0
9 -10 0
-25 6 0
-2 -1 0
-25 17 0
25 11 0
-6 -8 0
-1 -21 0
-9 -14 0
-20 -1 0
-16 8 0
25 17 0
