c PROBLEM_025_090_24  vars=25  clausulas=90  k=2
p cnf 25 90
-9 16 0
-2 -22 0
25 20 0
-1 -2 0
-13 4 0
-13 12 0
-6 13 0
-11 -18 0
-23 -7 0
17 24 0
-20 -14 0
7 16 0
19 -15 0
5 -19 0
16 13 0
-21 -16 0
24 16 0
6 -8 0
-18 2 0
-9 -17 0
-17 -10 0
-20 19 0
24 11 0
-23 -22 0
-1 -4 0
2 9 0
-25 6 0
-8 24 0
-9 21 0
-4 20 0
18 -21 0
-24 -13 0
-8 -11 0
14 -18 0
15 -4 0
-6 13 0
9 -14 0
22 -3 0
15 -4 0
24 -8 0
21 13 0
4 8 0
25 -13 0
25 -11 0
-24 18 0
17 10 0
7 4 0
-13 -21 0
-3 -18 0
13 -14 0
-4 -12 0
4 -22 0
-10 -23 0
-21 -1 0
14 22 0
-5 1 0
7 5 0
15 -2 0
-20 -21 0
-9 2 0
18 -6 0
16 -18 0
-16 25 0
4 19 0
-11 20 0
2 11 0
-22 1 0
14 25 0
8 -3 0
-20 22 0
-12 -13 0
-8 18 0
5 4 0
-7 11 0
-1 12 0
-18 2 0
-24 3 0
-25 -12 0
1 14 0
7 4 0
20 -13 0
-6 -18 0
13 -12 0
21 14 0
19 -24 0
-14 -17 0
2 -5 0
-19 9 0
10 15 0
-19 5 0
