c PROBLEM_025_090_25  vars=25  clausulas=90  k=2
p cnf 25 90
23 -24 0
24 -17 0
-1 15 0
-13 4 0
-3 20 0
1 14 0
-24 17 0
8 -25 0
-10 25 0
-8 -24 0
8 18 0
-11 -6 0
-12 21 0
-13 -6 0
-23 -10 0
-19 17 0
22 8 0
-3 20 0
-23 7 0
20 -9 0
-10 8 0
24 14 0
-6 -23 0
18 -13 0
-16 -15 0
10 -6 0
12 -7 0
-14 22 0
11 21 0
2 -19 0
-16 4 0
6 -3 0
-21 23 0
22 15 0
12 -25 0
-10 -13 0
6 -13 0
10 -1 0
3 -11 0
-13 -22 0
1 19 0
21 -23 0
18 17 0
-9 5 0
-4 -11 0
-2 -18 0
10 15 0
21 -4 0
-20 -9 0
15 10 0
4 21 0
21 -3 0
-14 -24 0
9 -6 0
-11 5 0
25 7 0
-23 -9 0
-22 14 0
8 -9 0
-13 -22 0
13 -9 0
21 22 0
-21 -7 0
-4 6 0
19 -25 0
-25 14 0
-20 -1 0
6 -24 0
14 -24 0
-12 5 0
-6 -16 0
-6 -2 0
18 -14 0
-22 14 0
18 9 0
-6 -3 0
-14 -3 0
14 -6 0
-14 11 0
-10 -7 0
-12 -3 0
7 2 0
6 -16 0
-7 -8 0
-22 -20 0
-25 17 0
-20 -24 0
15 -12 0
-16 17 0
8 -6 0
