c PROBLEM_025_090_26  vars=25  clausulas=90  k=2
p cnf 25 90
3 15 0
13 -17 0
-15 -21 0
-22 -17 0
-7 19 0
24 -25 0
-22 16 0
-20 17 0
10 -25 0
-22 -25 0
6 18 0
-10 -19 0
5 18 0
-8 -13 0
-15 16 0
-25 -24 0
11 1 0
-24 -12 0
-13 24 0
-11 -4 0
-13 -21 0
-3 11 0
6 7 0
-19 24 0
8 20 0
16 -15 0
3 10 0
-20 19 0
-24 23 0
13 4 0
-24 -13 0
23 -17 0
-14 12 0
-16 3 0
2 -14 0
19 -3 0
-24 -3 0
12 -7 0
1 2 0
-7 -3 0
9 16 0
2 -10 0
-13 -11 0
7 5 0
-8 18 0
6 24 0
24 -2 0
-17 8 0
8 -23 0
17 -21 0
4 -13 0
19 -16 0
14 23 0
-3 17 0
-24 10 0
-10 24 0
16 -25 0
-2 -6 0
4 -24 0
24 -8 0
-9 -8 0
5 -9 0
-12 1 0
4 -13 0
23 7 0
2 -24 0
-7 -2 0
5 11 0
-11 -1 0
-9 -12 0
2 -6 0
24 25 0
12 9 0
20 7 0
12 2 0
-8 -3 0
-17 -23 0
-23 24 0
5 -25 0
-16 9 0
-16 -9 0
22 23 0
23 5 0
3 -25 0
3 21 0
-3 14 0
11 -7 0
5 15 0
-9 25 0
-15 7 0
