c PROBLEM_025_090_29  vars=25  clausulas=90  k=2
p cnf 25 90
-18 -10 0
8 -22 0
25 -5 0
19 20 0
22 17 0
21 4 0
-19 17 0
22 -19 0
-3 1 0
3 -11 0
13 -20 0
6 5 0
-7 13 0
23 25 0
-16 -1 0
-19 -4 0
19 14 0
-2 -25 0
22 -23 0
-7 15 0
-14 -7 0
-2 23 0
-5 10 0
-22 23 0
9 -11 0
4 -17 0
-1 11 0
-19 21 0
-5 -8 0
-23 -20 0
25 17 0
-6 18 0
-18 -16 0
8 -2 0
7 -8 0
-10 25 0
-9 5 0
-15 -20 0
20 24 0
9 -25 0
12 -5 0
24 -10 0
-23 20 0
18 -10 0
1 -13 0
3 -10 0
-14 -2 0
-21 12 0
-4 -6 0
21 7 0
-7 -5 0
5 21 0
-25 19 0
1 -11 0
-17 -6 0
6 -8 0
-23 -6 0
7 -4 0
-12 -6 0
-23 25 0
-22 -10 0
-9 -8 0
14 -11 0
9 -7 0
25 -7 0
1 6 0
-24 11 0
-16 -1 0
8 -13 0
13 23 0
3 -7 0
5 22 0
-4 9 0
-25 -19 0
-22 20 0
-16 2 0
-8 -18 0
2 8 0
-13 10 0
-9 12 0
20 17 0
19 -11 0
24 -13 0
-23 13 0
6 1 0
17 20 0
-7 -2 0
14 -3 0
5 15 0
8 15 0
