c PROBLEM_025_090_38  vars=25  clausulas=90  k=2
p cnf 25 90
-3 -21 0
18 3 0
13 8 0
20 -11 0
-24 -11 0
3 -19 0
-16 -20 0
-8 -23 0
-10 -18 0
-6 10 0
17 2 0
19 -1 0
7 4 0
20 -11 0
2 -20 0
15 20 0
19 -25 0
-16 22 0
14 -9 0
-22 -24 0
2 -1 0
-12 -9 0
-14 13 0
18 1 0
25 -1 0
20 16 0
2 24 0
-3 -16 0
-8 14 0
-14 -7 0
25 2 0
8 20 0
4 23 0
3 18 0
-23 -24 0
-6 1 0
25 23 0
21 5 0
-15 -19 0
11 -5 0
5 21 0
19 1 0
-1 20 0
1 -11 0
-4 -16 0
-13 8 0
-24 6 0
-1 18 0
20 -24 0
2 -10 0
-21 -25 0
-8 10 0
-10 14 0
14 25 0
5 -17 0
1 18 0
-14 -23 0
21 -10 0
21 25 0
-13 -18 0
-1 -13 0
-17 22 0
14 -7 0
-5 21 0
16 -22 0
-18 -3 0
9 14 0
-12 -19 0
20 22 0
-14 15 0
1 22 0
23 -10 0
14 1 0
-18 -6 0
6 -5 0
19 -20 0
21 -10 0
-4 -7 0
23 5 0
-14 1 0
5 -23 0
22 24 0
22 10 0
-12 -15 0
-2 -13 0
-15 -1 0
4 21 0
-24 4 0
21 -25 0
-25 -9 0
