c PROBLEM_025_090_03  vars=25  clausulas=90  k=2
p cnf 25 90
-12 -4 0
15 -6 0
8 -10 0
-23 22 0
-3 -11 0
-18 2 0
-21 6 0
20 -9 0
13 -17 0
2 -11 0
21 -17 0
-9 -3 0
12 -15 0
-4 -9 0
4 -3 0
7 5 0
-24 19 0
-13 -10 0
-16 -7 0
8 -13 0
-9 -19 0
11 -15 0
-5 -15 0
-18 8 0
-19 -9 0
25 -17 0
4 -24 0
-13 -21 0
-2 -12 0
-25 15 0
-10 12 0
13 6 0
25 -1 0
-12 19 0
5 13 0
-19 -12 0
-4 -18 0
9 1 0
2 -10 0
-20 -22 0
-22 8 0
-24 6 0
-3 -19 0
12 17 0
23 2 0
-24 8 0
-23 -12 0
23 -4 0
-22 -19 0
-7 5 0
-1 -11 0
15 -20 0
-22 -16 0
25 -18 0
-17 7 0
-5 -4 0
4 -19 0
4 24 0
-11 -2 0
13 -1 0
5 19 0
14 -23 0
-16 15 0
-5 -3 0
8 12 0
-3 21 0
-16 -8 0
-4 -23 0
-15 -21 0
7 -18 0
8 7 0
24 12 0
3 -24 0
-25 -10 0
-9 -16 0
5 3 0
20 16 0
14 1 0
11 -17 0
7 1 0
-8 -24 0
-24 -5 0
16 -19 0
8 -16 0
19 -20 0
4 22 0
17 -1 0
19 16 0
22 -25 0
-7 21 0
