c PROBLEM_025_090_20  vars=25  clausulas=90  k=2
p cnf 25 90
-22 -11 0
7 14 0
-8 -4 0
-1 -24 0
3 23 0
-6 -15 0
21 -2 0
16 10 0
-24 18 0
15 21 0
21 -5 0
12 -14 0
18 17 0
-5 -7 0
-11 -12 0
-15 20 0
4 -5 0
-2 -15 0
15 -22 0
11 19 0
-22 -24 0
-5 -23 0
3 -12 0
9 16 0
17 9 0
17 -20 0
22 7 0
3 -6 0
3 18 0
5 -8 0
-10 25 0
20 25 0
-5 7 0
-6 -5 0
-2 25 0
13 25 0
-18 -14 0
19 -15 0
-3 -17 0
2 -11 0
10 -25 0
-5 24 0
4 21 0
-14 8 0
13 7 0
23 -3 0
-14 -2 0
2 -17 0
-23 22 0
-6 -9 0
-7 -18 0
6 -7 0
23 11 0
4 -15 0
10 -4 0
2 -16 0
-19 3 0
25 -9 0
-23 -14 0
14 -2 0
13 4 0
-9 16 0
11 13 0
-21 15 0
-3 -19 0
24 -21 0
-18 -16 0
21 -4 0
-5 4 0
-16 -4 0
-10 -19 0
6 4 0
-16 -14 0
-3 -15 0
11 5 0
5 -7 0
10 -5 0
-1 6 0
-19 14 0
23 -19 0
-23 7 0
-17 -13 0
-8 -21 0
-22 1 0
12 -5 0
-7 -12 0
5 21 0
-8 12 0
1 -24 0
14 -1 0
