c PROBLEM_025_090_13  vars=25  clausulas=90  k=2
p cnf 25 90
-2 24 0
-19 -10 0
-6 -14 0
-23 21 0
20 17 0
-19 11 0
24 2 0
-21 -23 0
16 -2 0
13 17 0
-21 -25 0
13 -4 0
15 19 0
13 1 0
7 25 0
-25 -4 0
-14 -22 0
3 -2 0
-6 11 0
5 -14 0
-25 7 0
-6 8 0
-2 -12 0
-17 -23 0
20 -2 0
1 11 0
-4 -7 0
-19 3 0
22 4 0
-16 -17 0
9 -1 0
9 1 0
5 22 0
-20 21 0
9 -1 0
7 -22 0
-17 11 0
11 19 0
21 14 0
21 -19 0
9 22 0
7 10 0
-11 19 0
-13 19 0
7 23 0
18 17 0
21 -24 0
-6 22 0
23 -10 0
-5 10 0
24 -2 0
7 -20 0
-22 25 0
12 21 0
-18 9 0
-8 7 0
-3 23 0
12 17 0
11 23 0
-4 24 0
-18 24 0
-3 9 0
11 10 0
-15 -23 0
21 -4 0
-12 -3 0
24 2 0
20 9 0
5 -18 0
-14 -22 0
-4 -19 0
-13 22 0
-20 10 0
-19 21 0
-4 10 0
3 -23 0
1 -19 0
-16 21 0
24 5 0
-13 9 0
15 -19 0
-13 18 0
-7 22 0
11 22 0
21 24 0
-8 19 0
-3 -2 0
25 12 0
18 9 0
-3 -19 0
