c PROBLEM_025_090_49  vars=25  clausulas=90  k=2
p cnf 25 90
-24 -23 0
-2 -18 0
24 -5 0
14 -15 0
1 -23 0
16 -13 0
14 17 0
7 10 0
-7 -21 0
3 23 0
-11 -18 0
17 8 0
10 -6 0
-13 23 0
10 2 0
-1 -15 0
24 -20 0
-19 15 0
-2 15 0
-12 8 0
13 -25 0
13 21 0
8 -25 0
-10 -5 0
22 10 0
-12 -20 0
-12 -22 0
-9 -8 0
-12 20 0
4 22 0
3 -10 0
18 -1 0
2 -16 0
17 -18 0
-1 -22 0
20 -2 0
23 13 0
14 4 0
20 -21 0
-13 10 0
15 1 0
-21 8 0
-23 -3 0
-9 3 0
20 -21 0
-9 -8 0
25 10 0
-20 -25 0
5 12 0
-16 -15 0
-25 9 0
18 -24 0
6 10 0
-14 -17 0
8 -15 0
-19 7 0
19 4 0
6 -19 0
10 2 0
-7 -12 0
16 22 0
-3 -22 0
-18 1 0
-2 7 0
-17 3 0
3 -10 0
9 -8 0
-21 16 0
-22 19 0
21 -5 0
-14 -8 0
18 4 0
-16 -18 0
21 15 0
-18 17 0
-13 -15 0
-1 -17 0
-16 -12 0
4 -21 0
-3 6 0
-15 -22 0
17 -16 0
18 -12 0
-1 -6 0
7 12 0
1 16 0
11 8 0
-5 4 0
13 2 0
-15 -11 0
