c PROBLEM_025_090_04  vars=25  clausulas=90  k=2
p cnf 25 90
-14 -21 0
-13 -18 0
-10 4 0
-2 -19 0
24 -16 0
16 -21 0
23 17 0
-24 7 0
19 10 0
23 -4 0
16 -6 0
4 1 0
17 -23 0
-16 -4 0
-24 6 0
23 -7 0
21 -23 0
-2 -3 0
-4 -19 0
15 -25 0
9 -3 0
-25 -11 0
25 11 0
22 13 0
-20 9 0
-25 -13 0
7 -16 0
-13 24 0
8 -6 0
-9 -23 0
16 1 0
-8 -21 0
1 -9 0
6 -3 0
16 10 0
17 -20 0
-22 11 0
-1 -9 0
17 -19 0
1 17 0
6 12 0
-13 9 0
14 -11 0
-23 -12 0
-12 3 0
-24 -6 0
-1 -14 0
-1 -4 0
-15 -20 0
25 14 0
17 24 0
-16 12 0
9 18 0
-13 1 0
-16 -3 0
7 -16 0
-19 23 0
12 -21 0
-18 10 0
17 -14 0
1 4 0
-24 -9 0
-4 -12 0
18 -13 0
18 -20 0
-8 -17 0
2 -8 0
-7 -20 0
-15 8 0
-11 -25 0
13 -4 0
-1 22 0
-14 -5 0
21 14 0
-1 -6 0
-17 4 0
-18 14 0
2 22 0
23 22 0
-1 -4 0
-9 -5 0
19 14 0
-20 -12 0
-22 6 0
3 -14 0
-24 20 0
19 -11 0
6 7 0
-21 5 0
-1 -21 0
