c PROBLEM_025_090_08  vars=25  clausulas=90  k=2
p cnf 25 90
4 17 0
9 23 0
6 5 0
-22 18 0
-23 -7 0
-25 8 0
21 8 0
24 -3 0
-16 -22 0
-2 -21 0
10 -11 0
-13 -21 0
20 -1 0
9 -8 0
3 25 0
7 11 0
-7 19 0
-6 19 0
2 9 0
-13 14 0
-11 -15 0
20 1 0
25 7 0
13 -12 0
-5 -19 0
1 7 0
-10 12 0
13 -15 0
-17 -22 0
25 -18 0
-14 -6 0
9 14 0
5 -16 0
-12 -19 0
7 2 0
-14 7 0
15 3 0
3 21 0
13 1 0
21 4 0
10 -17 0
-4 -12 0
-9 14 0
15 -25 0
10 -21 0
-8 -1 0
17 25 0
21 7 0
-25 -18 0
-18 -16 0
-6 20 0
-24 9 0
-3 1 0
-14 20 0
-22 -2 0
5 10 0
19 10 0
6 -20 0
-14 -23 0
1 -18 0
-25 5 0
15 6 0
-15 -11 0
-10 7 0
1 -22 0
14 -6 0
2 -24 0
7 4 0
18 2 0
-19 -16 0
-24 7 0
-23 -10 0
-7 -13 0
-17 23 0
-24 -15 0
-6 2 0
19 20 0
-13 7 0
9 -13 0
-23 -2 0
-12 -7 0
-9 20 0
24 -7 0
-12 4 0
-14 -19 0
-11 1 0
-17 11 0
-18 -9 0
13 6 0
-16 19 0
