c PROBLEM_025_090_37  vars=25  clausulas=90  k=2
p cnf 25 90
-14 -15 0
-11 -23 0
-11 -19 0
-22 8 0
19 2 0
2 -23 0
8 -25 0
-8 1 0
24 13 0
2 -8 0
17 8 0
22 8 0
4 -10 0
14 -23 0
-20 -7 0
13 -17 0
5 -19 0
13 2 0
-6 16 0
18 -11 0
-10 16 0
2 -5 0
9 -20 0
24 6 0
-14 -17 0
20 12 0
10 19 0
15 7 0
11 -20 0
6 8 0
5 11 0
-25 -5 0
-6 -24 0
2 20 0
-14 12 0
11 -22 0
19 14 0
9 -13 0
-4 -7 0
-7 1 0
3 24 0
9 19 0
7 -10 0
-19 -14 0
11 -2 0
-1 -19 0
5 -19 0
-4 -19 0
-21 15 0
-25 -15 0
24 -4 0
-19 -18 0
-20 24 0
22 9 0
6 -9 0
-18 -1 0
23 -7 0
-25 -6 0
-4 7 0
-11 -23 0
6 20 0
5 23 0
6 -9 0
-21 -11 0
18 -7 0
7 -5 0
23 -13 0
10 3 0
-18 -19 0
22 -14 0
-11 -25 0
-10 -1 0
12 6 0
-20 18 0
13 19 0
-25 -17 0
-22 -8 0
-10 -13 0
15 -19 0
-13 -18 0
7 24 0
12 -9 0
7 -21 0
4 11 0
22 -7 0
-12 16 0
-15 24 0
11 23 0
9 -16 0
-3 9 0
