c PROBLEM_025_090_41  vars=25  clausulas=90  k=2
p cnf 25 90
20 24 0
3 -19 0
-5 13 0
-6 -19 0
2 -10 0
18 -12 0
22 9 0
7 -25 0
22 16 0
17 21 0
-25 -9 0
8 2 0
-10 4 0
9 -22 0
8 23 0
7 25 0
25 19 0
-21 -1 0
-24 13 0
-4 -16 0
3 2 0
19 21 0
-9 25 0
7 11 0
-15 5 0
10 16 0
-3 -18 0
14 8 0
9 18 0
-8 9 0
-23 25 0
19 8 0
-20 9 0
-21 -14 0
18 23 0
1 24 0
9 15 0
-24 13 0
-17 -12 0
-16 -22 0
-13 -23 0
-17 -22 0
19 -24 0
-14 -23 0
21 -2 0
-10 -19 0
24 15 0
22 -6 0
3 -14 0
12 -18 0
-5 23 0
-17 15 0
-11 21 0
6 -9 0
-10 -2 0
-3 -23 0
-24 -11 0
24 -3 0
-22 23 0
24 -19 0
-20 12 0
25 -5 0
23 20 0
-8 5 0
3 -7 0
-13 16 0
-3 16 0
-10 -25 0
-5 -21 0
-10 -9 0
-14 18 0
6 20 0
19 7 0
2 -21 0
-20 -7 0
-16 18 0
5 -21 0
-15 2 0
22 7 0
-17 9 0
-3 -17 0
4 9 0
3 1 0
-4 12 0
-12 21 0
-15 20 0
-8 25 0
-10 16 0
13 -23 0
20 16 0
