c PROBLEM_025_090_40  vars=25  clausulas=90  k=2
p cnf 25 90
6 14 0
12 -17 0
-20 11 0
-23 -21 0
10 7 0
2 16 0
22 24 0
16 -10 0
-6 9 0
-7 11 0
-18 5 0
-19 6 0
-17 2 0
-4 1 0
-1 -2 0
10 -16 0
18 -24 0
-16 9 0
-15 14 0
-1 -11 0
-4 -10 0
-14 10 0
-1 5 0
19 7 0
11 -10 0
16 -1 0
-16 8 0
-3 2 0
1 14 0
-15 -19 0
-8 25 0
3 11 0
18 -10 0
10 -11 0
-4 -25 0
5 -20 0
25 2 0
-7 -19 0
-23 1 0
-15 -21 0
16 18 0
-14 5 0
-2 11 0
13 -24 0
-9 -21 0
8 -3 0
-3 24 0
6 19 0
20 25 0
16 -23 0
15 6 0
-12 4 0
25 21 0
18 -25 0
7 -18 0
-22 -21 0
3 19 0
-18 -1 0
22 -25 0
12 -22 0
23 -21 0
25 23 0
19 23 0
19 8 0
12 10 0
24 -25 0
-10 -9 0
-16 -21 0
-3 -8 0
1 18 0
5 -10 0
11 -4 0
13 3 0
11 -17 0
-24 -14 0
-17 -21 0
-4 2 0
5 -7 0
3 -7 0
15 -25 0
-20 -5 0
-10 -23 0
-12 5 0
-12 -8 0
21 -8 0
17 3 0
17 -24 0
4 12 0
-8 5 0
13 -1 0
