c PROBLEM_025_090_45  vars=25  clausulas=90  k=2
p cnf 25 90
-20 4 0
-6 22 0
6 -21 0
13 -21 0
15 18 0
12 1 0
10 16 0
-22 10 0
-20 17 0
-13 21 0
8 6 0
-6 -17 0
8 -22 0
17 1 0
14 -1 0
-12 -25 0
-8 -2 0
19 21 0
1 -20 0
-18 7 0
12 -6 0
22 -4 0
2 -3 0
13 -14 0
-10 -18 0
17 -23 0
18 -21 0
23 -13 0
3 17 0
-25 18 0
-19 -9 0
-17 2 0
9 19 0
-4 -24 0
-24 -7 0
-23 -21 0
8 14 0
9 4 0
-5 -25 0
-18 2 0
4 3 0
-14 4 0
-6 19 0
23 25 0
20 -23 0
16 -4 0
-1 -4 0
-5 -23 0
1 7 0
-16 -23 0
11 13 0
-14 21 0
-15 -7 0
-24 23 0
-14 9 0
13 -23 0
-11 22 0
15 -24 0
-23 5 0
-24 13 0
8 -4 0
10 24 0
21 -22 0
-7 -18 0
-11 20 0
1 2 0
18 -8 0
-21 12 0
15 -10 0
-16 13 0
-22 -3 0
2 9 0
5 -11 0
-20 -24 0
-11 -23 0
-8 14 0
11 20 0
25 18 0
6 -13 0
21 16 0
-6 14 0
10 -13 0
-18 13 0
8 17 0
-21 8 0
24 -5 0
-19 -16 0
3 -15 0
1 15 0
8 -2 0
