c PROBLEM_025_090_46  vars=25  clausulas=90  k=2
p cnf 25 90
20 5 0
2 -25 0
-25 -7 0
-13 -3 0
-21 9 0
-16 -12 0
-16 -3 0
15 2 0
-8 14 0
-16 11 0
7 -1 0
-1 24 0
12 18 0
5 13 0
12 -8 0
-23 -13 0
20 8 0
-24 -10 0
19 -1 0
-4 -17 0
-11 -12 0
-6 16 0
19 6 0
-2 8 0
13 22 0
-13 -7 0
10 -8 0
22 6 0
-25 -4 0
-6 2 0
-16 25 0
-8 1 0
-5 -25 0
-18 -1 0
24 -9 0
24 12 0
4 -14 0
25 -15 0
-16 5 0
17 21 0
6 9 0
-3 -23 0
-13 -18 0
-6 -21 0
25 -15 0
19 -6 0
17 14 0
-4 -1 0
23 7 0
14 -22 0
-21 4 0
6 -24 0
8 12 0
-13 16 0
6 -13 0
24 -10 0
1 -5 0
24 15 0
7 -8 0
22 -13 0
-2 -4 0
10 -19 0
17 -15 0
19 -14 0
5 15 0
2 -18 0
-7 24 0
22 19 0
-2 -16 0
17 5 0
-10 -20 0
19 -1 0
-6 -24 0
-1 -17 0
9 5 0
12 -11 0
-13 -1 0
19 -14 0
2 -9 0
7 -17 0
-21 13 0
8 -6 0
-22 12 0
-11 22 0
18 7 0
-14 10 0
-4 22 0
1 -3 0
2 19 0
-21 20 0
