c PROBLEM_025_090_06  vars=25  clausulas=90  k=2
p cnf 25 90
20 10 0
-15 17 0
-23 -25 0
-14 10 0
19 -24 0
-24 23 0
23 8 0
10 17 0
17 9 0
-22 -13 0
-18 4 0
8 3 0
-21 -6 0
2 24 0
7 21 0
20 19 0
13 25 0
7 17 0
16 20 0
-24 19 0
-17 -24 0
24 19 0
24 20 0
-4 6 0
13 -24 0
-16 5 0
-16 14 0
-24 25 0
4 15 0
7 -25 0
18 -22 0
20 -15 0
-7 21 0
9 7 0
-1 -4 0
1 3 0
11 -23 0
-24 -22 0
-4 22 0
-15 11 0
17 18 0
4 -18 0
-12 4 0
-25 2 0
3 25 0
11 -22 0
18 -8 0
-3 24 0
11 17 0
-8 -2 0
-5 -8 0
20 10 0
18 8 0
10 22 0
-23 2 0
25 -22 0
-19 20 0
-3 -9 0
13 8 0
-10 -4 0
14 21 0
-1 -16 0
-12 -18 0
-19 22 0
-17 20 0
8 -12 0
22 -1 0
8 -9 0
-3 8 0
1 17 0
14 4 0
12 -2 0
5 8 0
-5 -20 0
-7 6 0
-5 25 0
13 -10 0
-19 -4 0
2 -22 0
-18 5 0
-23 -17 0
2 7 0
8 5 0
-13 -10 0
20 -16 0
-5 -8 0
17 -1 0
7 -9 0
11 -4 0
3 -22 0
