c PROBLEM_025_090_12  vars=25  clausulas=90  k=2
p cnf 25 90
23 22 0
8 16 0
16 2 0
-21 7 0
11 -18 0
-19 -10 0
6 13 0
22 -5 0
5 1 0
20 -15 0
6 -20 0
23 -3 0
13 21 0
9 -23 0
21 -11 0
-7 -8 0
-6 5 0
25 -18 0
-21 -9 0
-21 5 0
12 19 0
-15 -24 0
16 7 0
18 5 0
6 -19 0
-23 -15 0
3 9 0
4 -20 0
13 15 0
13 -22 0
20 22 0
16 -25 0
-2 -22 0
-10 23 0
18 23 0
1 16 0
-14 5 0
-4 15 0
-10 -4 0
23 -2 0
23 -18 0
-21 -9 0
3 11 0
14 7 0
-25 -6 0
1 24 0
-17 -8 0
-22 21 0
-2 5 0
12 4 0
-12 -24 0
-17 20 0
9 -5 0
3 23 0
17 -24 0
19 -6 0
18 23 0
-10 22 0
19 -1 0
14 -24 0
4 24 0
6 21 0
-19 10 0
6 23 0
-21 19 0
-15 14 0
7 -4 0
-23 17 0
4 -16 0
5 -11 0
-12 10 0
-13 9 0
-16 18 0
17 11 0
-1 20 0
19 1 0
-12 -21 0
11 24 0
4 -16 0
23 21 0
8 17 0
18 -10 0
-19 -1 0
21 1 0
-21 -17 0
5 -25 0
16 20 0
-4 21 0
5 17 0
-13 -20 0
