c PROBLEM_025_090_21  vars=25  clausulas=90  k=2
p cnf 25 90
18 -14 0
21 14 0
-5 15 0
-16 22 0
-15 18 0
-13 -6 0
-16 12 0
-19 -8 0
15 22 0
2 -11 0
8 -25 0
19 11 0
8 -6 0
-23 -19 0
12 10 0
5 21 0
-20 -13 0
4 -10 0
11 19 0
-8 -15 0
7 -10 0
9 16 0
-10 -21 0
3 -2 0
20 -18 0
3 7 0
-22 -6 0
-23 19 0
23 16 0
6 -7 0
-22 -8 0
-21 -25 0
-11 -8 0
23 5 0
-21 -12 0
-2 13 0
1 -12 0
10 20 0
22 3 0
4 -2 0
-18 16 0
-19 17 0
8 18 0
-22 -2 0
-16 -9 0
8 12 0
2 -6 0
11 13 0
-16 -14 0
1 -19 0
9 18 0
18 -8 0
20 -8 0
-1 -13 0
13 24 0
16 -25 0
-22 -1 0
22 18 0
-25 23 0
3 16 0
-20 -15 0
-4 18 0
20 23 0
9 -3 0
11 9 0
24 -8 0
-6 -23 0
-11 21 0
19 9 0
16 2 0
-22 -1 0
6 -23 0
-9 -8 0
16 -5 0
12 2 0
17 -10 0
22 -24 0
9 13 0
13 -17 0
-14 15 0
17 9 0
-7 -22 0
2 -25 0
24 11 0
12 -21 0
-15 8 0
2 -22 0
6 17 0
-4 -12 0
-9 -23 0
