c PROBLEM_010_060_16  vars=10  clausulas=60  k=2
p cnf 10 60
4 -1 0
-5 10 0
-5 6 0
8 3 0
-1 8 0
-7 10 0
-10 4 0
5 -10 0
-6 -8 0
8 -1 0
6 -10 0
-9 1 0
5 -7 0
6 -3 0
2 7 0
4 1 0
2 3 0
-9 10 0
8 -6 0
2 5 0
7 10 0
3 7 0
10 4 0
4 -10 0
-9 -7 0
-1 -8 0
-10 6 0
2 -1 0
9 -10 0
-10 6 0
-2 -4 0
-1 -9 0
-1 -2 0
-9 6 0
-6 10 0
-8 -2 0
-4 -5 0
-8 5 0
5 -6 0
9 -4 0
-8 -6 0
-9 -8 0
-4 -10 0
-6 3 0
-3 10 0
5 1 0
-6 4 0
6 3 0
-1 3 0
-3 10 0
-1 9 0
-5 9 0
-10 7 0
1 -2 0
3 -2 0
-9 -7 0
-10 -2 0
1 9 0
-9 8 0
-7 -9 0
