c PROBLEM_050_080_39  vars=50  clausulas=80  k=2
p cnf 50 80
25 48 0
44 -10 0
15 46 0
17 -41 0
-19 -36 0
20 39 0
26 7 0
33 20 0
44 26 0
46 -1 0
49 -32 0
-22 37 0
17 49 0
36 -13 0
-36 40 0
41 44 0
16 32 0
27 50 0
-38 5 0
-23 -48 0
-10 -3 0
38 -47 0
27 6 0
23 9 0
-19 -5 0
6 -8 0
43 21 0
45 -28 0
-37 -9 0
48 35 0
-9 35 0
37 40 0
13 42 0
-41 -40 0
26 36 0
6 8 0
14 37 0
-15 -25 0
-45 9 0
-10 -15 0
-18 -36 0
-35 6 0
28 -8 0
47 -41 0
-9 46 0
-4 24 0
-50 -24 0
33 -39 0
-19 -11 0
-35 23 0
-2 49 0
-23 -47 0
-31 10 0
-30 14 0
23 40 0
-1 17 0
-12 -10 0
38 -26 0
-4 33 0
12 -48 0
32 47 0
-17 -4 0
38 37 0
-4 26 0
-5 -18 0
30 1 0
33 5 0
-35 -1 0
-43 3 0
-11 34 0
-42 12 0
21 -8 0
-29 12 0
15 -28 0
-26 -12 0
31 6 0
14 -3 0
-5 34 0
21 -41 0
-8 43 0
