c PROBLEM_050_080_38  vars=50  clausulas=80  k=2
p cnf 50 80
-32 -44 0
40 36 0
7 29 0
-45 24 0
50 22 0
49 -10 0
36 -13 0
-50 9 0
-25 -31 0
-1 30 0
-47 -14 0
-19 41 0
26 36 0
-34 -4 0
-46 11 0
-37 45 0
-36 -7 0
19 13 0
-45 11 0
21 -49 0
8 -26 0
-12 28 0
-26 43 0
-1 20 0
-15 -41 0
12 -8 0
25 3 0
-33 45 0
-46 -47 0
39 26 0
9 -36 0
47 20 0
16 21 0
24 39 0
23 -10 0
27 6 0
-28 -15 0
-45 -20 0
-8 -23 0
-33 -41 0
33 -30 0
-46 23 0
14 4 0
25 -31 0
25 15 0
-6 -36 0
35 -49 0
-34 1 0
-6 -37 0
-40 -38 0
38 18 0
9 27 0
-12 18 0
37 -38 0
-35 29 0
34 -43 0
32 -22 0
14 -38 0
-40 19 0
-17 50 0
34 12 0
-20 50 0
-30 -5 0
44 -41 0
-45 -5 0
-13 17 0
-44 48 0
13 -19 0
-6 -28 0
-8 -14 0
-8 -11 0
-3 42 0
-9 3 0
-16 -3 0
47 -2 0
5 -41 0
46 -12 0
1 46 0
-14 -31 0
26 44 0
