c PROBLEM_050_080_07  vars=50  clausulas=80  k=2
p cnf 50 80
47 -12 0
-16 -35 0
-25 -33 0
-3 6 0
24 36 0
-14 44 0
-14 47 0
43 35 0
-33 38 0
-39 -21 0
7 41 0
-42 49 0
18 14 0
4 -25 0
-29 -30 0
-12 -47 0
-5 -45 0
24 6 0
3 13 0
-6 10 0
7 10 0
37 -23 0
-23 -7 0
-45 -4 0
-36 -29 0
30 10 0
5 -26 0
43 -22 0
-48 18 0
21 10 0
-47 -17 0
-17 -42 0
33 -17 0
-2 -46 0
44 26 0
32 39 0
-4 49 0
33 23 0
6 -34 0
4 -8 0
-22 35 0
-28 42 0
44 41 0
16 48 0
-50 -31 0
10 -33 0
-16 29 0
39 45 0
-10 -23 0
-39 28 0
15 -47 0
28 46 0
30 -1 0
-49 15 0
-21 4 0
-35 -33 0
49 -27 0
-45 44 0
3 -9 0
17 -41 0
48 31 0
-26 1 0
11 14 0
37 12 0
-5 -19 0
5 18 0
20 -22 0
12 5 0
19 20 0
-9 21 0
36 -49 0
39 27 0
-30 14 0
-39 -36 0
29 40 0
-19 -17 0
-40 -2 0
32 -19 0
18 -42 0
-40 43 0
