c PROBLEM_050_080_06  vars=50  clausulas=80  k=2
p cnf 50 80
-33 50 0
-40 -19 0
17 16 0
-26 10 0
20 -2 0
20 -44 0
-23 39 0
39 29 0
37 9 0
3 21 0
-46 -11 0
-11 46 0
29 41 0
28 -34 0
33 -40 0
-25 29 0
-45 50 0
-49 25 0
-19 -9 0
-2 34 0
14 -29 0
50 8 0
21 47 0
17 44 0
-35 -8 0
-40 47 0
6 -18 0
-35 -36 0
-9 -33 0
29 -20 0
31 30 0
-25 28 0
-19 -24 0
-46 -31 0
23 -20 0
36 -28 0
46 7 0
5 -48 0
-43 49 0
34 7 0
-24 11 0
-43 -47 0
42 43 0
17 -33 0
-21 11 0
-11 -16 0
18 31 0
27 -44 0
18 35 0
19 -35 0
-10 -8 0
28 16 0
-4 -40 0
-16 -4 0
42 13 0
-35 48 0
-23 31 0
-30 -23 0
-47 -18 0
-12 25 0
-45 -22 0
-2 32 0
-37 14 0
38 4 0
-13 -9 0
-3 12 0
-32 -18 0
-49 6 0
10 -20 0
-43 30 0
27 -37 0
-22 -1 0
-36 -48 0
18 -21 0
3 -16 0
-33 -17 0
49 -17 0
-17 1 0
-24 -15 0
-21 -49 0
