c PROBLEM_050_080_16  vars=50  clausulas=80  k=2
p cnf 50 80
2 -13 0
-24 -47 0
-23 -17 0
-43 -25 0
-13 20 0
-43 31 0
-18 22 0
15 18 0
21 19 0
7 35 0
26 -4 0
-13 1 0
-39 3 0
27 11 0
8 28 0
-48 50 0
35 7 0
-15 39 0
-26 -5 0
-25 33 0
49 -38 0
-35 -7 0
25 47 0
-10 25 0
-15 10 0
38 -35 0
12 -8 0
-44 -6 0
-50 1 0
-46 -2 0
-47 -4 0
24 -37 0
17 44 0
-50 -43 0
17 36 0
29 -16 0
3 47 0
30 -9 0
-9 -29 0
46 34 0
47 35 0
-32 -31 0
20 50 0
42 10 0
-34 -4 0
-29 42 0
26 -10 0
-30 -11 0
14 -36 0
45 31 0
26 28 0
1 18 0
27 15 0
38 -3 0
-30 -15 0
45 -15 0
7 -47 0
45 14 0
-38 11 0
47 44 0
32 22 0
49 -11 0
-40 -41 0
-30 39 0
-4 -15 0
-28 -21 0
14 -21 0
19 -48 0
-24 47 0
25 7 0
29 -17 0
-41 -32 0
-31 7 0
-10 -48 0
32 35 0
42 3 0
-38 -33 0
-40 13 0
-16 21 0
-14 32 0
