c PROBLEM_050_080_27  vars=50  clausulas=80  k=2
p cnf 50 80
-45 -44 0
4 -7 0
14 -44 0
-10 -23 0
-29 25 0
-34 36 0
-11 -8 0
-35 21 0
-25 -30 0
-17 -12 0
-8 6 0
-38 39 0
23 28 0
31 -8 0
33 5 0
49 -31 0
44 10 0
36 15 0
48 50 0
9 37 0
-19 44 0
-5 25 0
23 -14 0
48 -47 0
-36 38 0
-40 9 0
-17 34 0
38 17 0
-28 -27 0
-42 50 0
9 -27 0
33 39 0
5 -4 0
16 -3 0
-20 -40 0
-46 -29 0
-2 -3 0
47 1 0
-21 28 0
-15 19 0
26 -49 0
-14 -41 0
-2 29 0
-1 12 0
-30 -1 0
-43 -10 0
21 35 0
42 29 0
-19 8 0
-26 39 0
-21 -10 0
-9 -48 0
16 7 0
-18 -26 0
1 15 0
23 -26 0
25 -47 0
-14 -28 0
-37 35 0
-42 -15 0
-7 8 0
29 -37 0
-39 20 0
33 -22 0
8 32 0
23 -6 0
-44 24 0
37 -34 0
-35 43 0
42 16 0
-19 -8 0
45 -49 0
-17 11 0
-29 -48 0
-4 -13 0
-23 8 0
-45 -12 0
12 -13 0
12 -41 0
30 17 0
