c PROBLEM_050_080_19  vars=50  clausulas=80  k=2
p cnf 50 80
-28 -43 0
18 -23 0
39 -46 0
-28 -15 0
-24 -9 0
-33 30 0
23 30 0
-38 -13 0
-25 7 0
9 8 0
10 5 0
50 -20 0
46 -45 0
7 -38 0
12 -43 0
-35 18 0
25 -1 0
-19 3 0
22 12 0
29 -42 0
43 -14 0
-37 32 0
50 12 0
-31 -47 0
-6 -2 0
-39 37 0
-26 38 0
48 -39 0
15 42 0
-12 -43 0
36 18 0
13 42 0
33 14 0
-7 5 0
6 -32 0
15 -5 0
-21 23 0
-11 29 0
-14 32 0
-22 24 0
-3 2 0
-23 -9 0
-15 -34 0
-8 -11 0
33 27 0
41 4 0
47 28 0
50 -10 0
-46 30 0
-26 42 0
-33 -48 0
-11 -50 0
-1 8 0
-31 40 0
50 -27 0
27 -4 0
-37 18 0
30 -7 0
29 40 0
25 30 0
-22 9 0
-44 1 0
-25 15 0
-30 12 0
-19 11 0
16 -17 0
-46 -15 0
40 -13 0
40 -11 0
38 -4 0
7 18 0
-19 10 0
-6 -45 0
17 -49 0
20 -16 0
-28 -4 0
37 -9 0
42 -49 0
39 -23 0
25 -35 0
