c PROBLEM_050_080_46  vars=50  clausulas=80  k=2
p cnf 50 80
27 42 0
4 -6 0
-47 1 0
13 -42 0
20 14 0
-28 -8 0
-30 37 0
-1 5 0
15 29 0
23 18 0
-42 -27 0
2 46 0
-33 10 0
4 -7 0
46 9 0
43 -42 0
-19 37 0
-10 -48 0
-47 -11 0
29 -11 0
-45 12 0
20 -42 0
24 -31 0
-41 -47 0
18 -21 0
30 -14 0
2 31 0
12 45 0
10 17 0
2 -35 0
17 48 0
-14 50 0
-4 33 0
48 32 0
-6 -39 0
-13 -12 0
-7 -32 0
6 -1 0
31 28 0
-47 3 0
-19 33 0
-39 -30 0
42 2 0
50 -38 0
-22 29 0
6 16 0
-21 41 0
-26 -34 0
16 29 0
49 -10 0
-41 25 0
-8 -1 0
-46 -22 0
37 -50 0
50 -45 0
-3 12 0
-37 -27 0
1 -49 0
27 29 0
20 5 0
44 34 0
-21 -44 0
-15 -12 0
-27 -8 0
-35 22 0
-25 -10 0
-15 2 0
27 20 0
19 -40 0
-41 32 0
-7 -48 0
-14 50 0
23 -27 0
-7 -29 0
-9 -36 0
-16 -31 0
-18 -15 0
14 49 0
19 29 0
-40 45 0
