c PROBLEM_050_080_36  vars=50  clausulas=80  k=2
p cnf 50 80
-2 13 0
28 -32 0
-8 -2 0
-16 23 0
-17 15 0
-48 34 0
-21 45 0
-11 27 0
-47 -29 0
11 -17 0
-13 12 0
-41 20 0
8 -34 0
-45 49 0
-41 -36 0
-16 -41 0
-28 -22 0
30 -33 0
48 36 0
45 -46 0
-15 -21 0
-47 -25 0
21 -11 0
39 16 0
42 -21 0
-31 46 0
-32 25 0
46 43 0
44 -48 0
-46 -30 0
47 22 0
-38 14 0
34 29 0
27 -39 0
47 22 0
-6 19 0
1 -7 0
-18 -46 0
-6 4 0
26 18 0
-36 -37 0
-12 -47 0
44 -33 0
20 -28 0
-22 31 0
43 26 0
3 50 0
1 27 0
7 48 0
-35 -38 0
-32 23 0
-13 -19 0
24 -29 0
-45 25 0
12 48 0
-7 33 0
-29 8 0
2 -47 0
-25 11 0
10 32 0
9 16 0
-7 5 0
-28 -32 0
-20 -17 0
19 32 0
-8 -20 0
2 -18 0
-29 -21 0
-39 -40 0
8 -1 0
-39 9 0
23 -43 0
-9 -32 0
34 27 0
-39 -2 0
28 11 0
-46 -17 0
5 -1 0
-38 -20 0
33 36 0
