c PROBLEM_050_080_13  vars=50  clausulas=80  k=2
p cnf 50 80
27 -16 0
9 28 0
-12 -45 0
9 19 0
-44 15 0
17 40 0
-35 13 0
7 -4 0
36 21 0
-8 -6 0
-16 49 0
43 31 0
-19 2 0
15 33 0
6 -41 0
10 -22 0
6 40 0
12 17 0
42 -41 0
-48 -36 0
23 8 0
-9 -25 0
-40 32 0
40 -13 0
19 1 0
-39 -49 0
-11 50 0
3 -41 0
-34 20 0
-44 8 0
6 -47 0
-28 -5 0
-15 -6 0
-42 18 0
20 -44 0
1 26 0
-26 5 0
-20 -3 0
3 42 0
-1 43 0
-45 13 0
45 -27 0
-43 11 0
14 10 0
1 -37 0
35 -19 0
10 46 0
34 -13 0
6 33 0
-20 38 0
-33 15 0
-34 -50 0
32 45 0
42 -15 0
-47 32 0
6 -30 0
-16 -13 0
-41 -45 0
31 -29 0
37 -36 0
-11 -30 0
14 48 0
-38 31 0
-26 46 0
23 43 0
28 18 0
-39 21 0
6 24 0
-14 41 0
5 -11 0
15 -25 0
-43 25 0
22 9 0
-2 21 0
-35 -49 0
18 4 0
28 -30 0
-28 16 0
-12 6 0
-2 7 0
