c PROBLEM_050_080_49  vars=50  clausulas=80  k=2
p cnf 50 80
41 33 0
49 35 0
-20 -10 0
-27 23 0
42 7 0
-34 32 0
8 -22 0
-4 27 0
12 11 0
-23 -2 0
47 48 0
16 -44 0
24 -48 0
-24 -17 0
8 -23 0
-4 -32 0
4 27 0
-39 -21 0
49 -41 0
-46 7 0
13 -46 0
-37 -39 0
-20 15 0
27 8 0
34 4 0
-24 22 0
-48 12 0
-13 -16 0
-47 -19 0
29 -5 0
8 5 0
-43 -42 0
-38 21 0
-3 -25 0
-45 -26 0
-47 50 0
-10 -22 0
-26 9 0
37 44 0
45 14 0
-1 7 0
-34 -39 0
3 -30 0
22 -4 0
-46 -42 0
-26 -17 0
-50 7 0
18 -11 0
46 4 0
32 -28 0
-4 -23 0
-20 -47 0
-28 36 0
-17 33 0
-35 -3 0
8 50 0
41 -46 0
35 10 0
1 -26 0
-20 2 0
47 1 0
6 -40 0
-36 14 0
44 -5 0
-45 50 0
-4 -20 0
39 43 0
-47 9 0
21 1 0
21 -45 0
32 -19 0
40 47 0
49 -3 0
-29 27 0
-1 43 0
-10 41 0
5 41 0
-50 39 0
-33 -38 0
-10 -31 0
