c PROBLEM_050_080_43  vars=50  clausulas=80  k=2
p cnf 50 80
35 -10 0
31 48 0
43 42 0
-25 18 0
-6 -43 0
-16 25 0
11 48 0
38 45 0
-21 -37 0
12 -24 0
15 -4 0
18 -19 0
-20 8 0
29 -48 0
1 -10 0
6 29 0
-10 6 0
45 33 0
-25 -24 0
-7 -35 0
-24 15 0
42 -49 0
33 -41 0
-8 -48 0
3 -2 0
33 8 0
-39 15 0
35 34 0
-33 -37 0
31 -34 0
-42 -28 0
42 12 0
-42 -27 0
-9 -6 0
-46 -8 0
-19 38 0
30 1 0
-14 -21 0
-16 17 0
-19 43 0
23 48 0
-35 -45 0
31 38 0
-40 -44 0
26 -47 0
-25 36 0
-48 -40 0
-2 45 0
38 -28 0
23 50 0
14 -34 0
-28 -22 0
12 -38 0
2 -7 0
46 4 0
10 26 0
9 -19 0
-25 38 0
-20 38 0
-7 17 0
-32 10 0
-7 38 0
4 21 0
23 41 0
29 -5 0
-38 16 0
-9 -46 0
-26 16 0
13 -3 0
-50 21 0
15 -46 0
11 -19 0
-31 8 0
6 -13 0
35 -15 0
-44 -36 0
5 39 0
-13 -27 0
6 -46 0
-45 22 0
