c PROBLEM_050_080_14  vars=50  clausulas=80  k=2
p cnf 50 80
-41 19 0
-10 -32 0
45 -24 0
-20 23 0
27 15 0
3 33 0
-42 -35 0
-17 -45 0
32 -43 0
24 40 0
49 -12 0
-28 -37 0
-19 -1 0
4 30 0
44 1 0
7 -36 0
21 -17 0
33 31 0
42 41 0
-34 -31 0
-13 30 0
-19 -15 0
21 -12 0
48 16 0
36 42 0
46 23 0
-18 20 0
-14 -33 0
-13 -6 0
-41 -6 0
-9 46 0
9 39 0
-1 -12 0
-34 -16 0
-41 33 0
38 -20 0
-34 27 0
33 -49 0
-25 6 0
-9 -15 0
-14 17 0
-21 4 0
16 -38 0
-27 -28 0
-30 10 0
14 -39 0
13 38 0
47 -4 0
-31 -7 0
25 8 0
-19 50 0
7 -33 0
28 -32 0
-16 34 0
-18 5 0
-39 -2 0
45 17 0
-46 13 0
-2 12 0
-10 -47 0
4 -24 0
-33 -18 0
-26 36 0
-22 -11 0
-31 47 0
-39 -16 0
-12 23 0
36 47 0
3 -50 0
40 33 0
7 34 0
-27 -20 0
-10 -36 0
-9 -28 0
-29 -36 0
34 29 0
-25 46 0
18 -6 0
-38 19 0
-38 -29 0
