c PROBLEM_050_080_48  vars=50  clausulas=80  k=2
p cnf 50 80
-35 -45 0
36 47 0
18 -39 0
-11 6 0
-10 50 0
42 34 0
23 -24 0
-2 -19 0
-40 4 0
-3 31 0
-43 48 0
20 -22 0
-27 -7 0
-39 25 0
-34 -16 0
-38 -31 0
25 23 0
33 47 0
37 30 0
-8 2 0
-23 14 0
45 20 0
-9 47 0
-8 -3 0
17 -28 0
3 40 0
25 40 0
-8 -49 0
-28 -33 0
14 -18 0
26 -34 0
38 4 0
-18 5 0
28 -13 0
-22 -30 0
-19 24 0
-26 44 0
34 20 0
-20 -47 0
10 -36 0
47 43 0
-44 -36 0
3 -22 0
-23 -43 0
27 36 0
-35 -13 0
14 -47 0
-17 42 0
-15 -13 0
-37 2 0
-9 -21 0
-18 -1 0
48 -43 0
-27 35 0
3 -12 0
-15 -11 0
-15 -47 0
-33 29 0
32 -37 0
-33 -4 0
-14 41 0
25 48 0
45 -5 0
15 -7 0
-21 36 0
-14 26 0
-1 -29 0
42 7 0
-5 1 0
29 2 0
35 26 0
31 5 0
22 -38 0
-7 21 0
40 -41 0
46 -36 0
-12 -4 0
11 5 0
39 -9 0
29 -16 0
