c PROBLEM_050_080_28  vars=50  clausulas=80  k=2
p cnf 50 80
-40 -30 0
-9 -41 0
7 -38 0
46 16 0
-35 -18 0
-26 13 0
24 3 0
6 -48 0
-20 -9 0
-40 -1 0
-6 15 0
-50 13 0
-38 -5 0
-41 16 0
6 31 0
16 -7 0
42 19 0
28 13 0
30 20 0
16 -48 0
32 -40 0
5 26 0
4 25 0
29 44 0
-42 24 0
-13 -21 0
-24 -23 0
26 50 0
-31 -5 0
-13 35 0
-9 -4 0
6 39 0
44 -20 0
-11 8 0
-45 2 0
43 -34 0
22 1 0
18 -26 0
23 -18 0
37 42 0
33 -2 0
-3 6 0
-17 -5 0
16 42 0
5 28 0
-40 -3 0
23 10 0
-39 16 0
22 8 0
14 -33 0
-8 -38 0
-25 48 0
25 -49 0
-11 -49 0
-12 -21 0
-47 -5 0
-19 -12 0
-2 -48 0
-48 29 0
34 27 0
-46 -37 0
4 40 0
15 -41 0
-10 1 0
-31 11 0
-11 -29 0
-3 -12 0
-48 -11 0
49 8 0
36 -38 0
23 -11 0
19 27 0
39 26 0
-21 -22 0
45 28 0
-48 -5 0
18 12 0
-17 -42 0
-25 15 0
38 -40 0
