c PROBLEM_050_080_20  vars=50  clausulas=80  k=2
p cnf 50 80
26 43 0
30 -41 0
-42 -15 0
24 22 0
33 -17 0
46 28 0
26 -40 0
-50 -3 0
38 -7 0
14 -44 0
-40 9 0
32 -48 0
-16 -47 0
48 -13 0
-48 -30 0
43 -49 0
-36 -37 0
10 40 0
-32 8 0
-19 41 0
39 11 0
-14 -4 0
-40 50 0
46 -21 0
31 -44 0
-23 33 0
42 35 0
-25 -33 0
39 -47 0
-46 -40 0
35 -6 0
-14 -23 0
50 32 0
-34 -50 0
33 -23 0
8 17 0
-44 20 0
-23 12 0
-46 -49 0
27 17 0
-26 -46 0
-46 45 0
-18 45 0
-9 46 0
-33 17 0
-18 32 0
-5 -9 0
-23 -12 0
-18 -23 0
24 44 0
29 -39 0
-18 13 0
45 -50 0
18 -37 0
-13 44 0
-2 -13 0
22 -17 0
-34 -16 0
33 8 0
-45 34 0
-11 31 0
-12 49 0
27 50 0
-38 12 0
3 -4 0
1 17 0
32 -23 0
41 -30 0
-10 -16 0
14 -15 0
4 -42 0
-7 32 0
-49 -47 0
-6 -23 0
32 15 0
-28 32 0
-21 -44 0
-7 2 0
-42 -11 0
14 1 0
