c PROBLEM_050_080_33  vars=50  clausulas=80  k=2
p cnf 50 80
11 41 0
-49 23 0
32 43 0
28 47 0
-3 22 0
-17 47 0
-4 46 0
-15 -33 0
-22 -27 0
36 11 0
27 20 0
10 -8 0
-9 43 0
-48 -11 0
-44 -1 0
-10 -27 0
46 -8 0
30 -21 0
-9 -40 0
15 2 0
-30 -39 0
47 -20 0
-8 -15 0
46 -41 0
-28 -32 0
-38 33 0
13 -17 0
4 47 0
-5 19 0
29 -25 0
6 24 0
40 29 0
-44 -37 0
-41 -43 0
-50 -37 0
42 21 0
-1 21 0
46 26 0
-29 -19 0
-41 -3 0
42 -10 0
49 17 0
45 -49 0
-7 -24 0
36 45 0
-5 33 0
35 -13 0
16 39 0
-11 -17 0
-5 21 0
-14 39 0
-9 34 0
17 35 0
41 4 0
24 -50 0
-19 -41 0
47 34 0
-40 46 0
46 -12 0
12 43 0
-19 50 0
6 -3 0
18 14 0
34 6 0
-43 -17 0
3 -23 0
14 40 0
-33 46 0
-26 -49 0
-21 42 0
-14 38 0
-48 5 0
18 -22 0
-34 -27 0
39 49 0
-25 -12 0
-31 3 0
10 -17 0
26 -38 0
-18 -16 0
