c PROBLEM_050_080_12  vars=50  clausulas=80  k=2
p cnf 50 80
-31 -50 0
-47 48 0
-32 -9 0
-18 49 0
-27 -13 0
-45 -49 0
-17 -47 0
-50 9 0
39 -5 0
27 -47 0
-22 -39 0
30 -14 0
11 21 0
-39 15 0
7 16 0
13 -22 0
-23 -48 0
4 16 0
-37 -10 0
49 5 0
-48 41 0
-47 46 0
42 20 0
-34 -26 0
44 -27 0
-31 21 0
-5 45 0
28 -15 0
-28 -44 0
18 41 0
-31 -10 0
45 20 0
6 -5 0
-1 38 0
11 9 0
38 -37 0
-10 -40 0
18 -17 0
24 33 0
38 -19 0
-36 13 0
11 -42 0
16 -12 0
32 9 0
30 -17 0
23 -7 0
-32 -46 0
2 39 0
19 18 0
33 13 0
-8 10 0
11 -33 0
-15 -25 0
-27 -14 0
12 -21 0
29 -25 0
-11 47 0
-12 -42 0
-19 -26 0
-26 -44 0
4 -37 0
-34 -43 0
25 -50 0
-36 -12 0
13 -12 0
3 9 0
21 -25 0
10 24 0
-13 15 0
-39 16 0
5 -13 0
35 -5 0
3 -45 0
-33 5 0
-4 -46 0
33 45 0
-21 18 0
26 -6 0
8 -42 0
26 -41 0
