c PROBLEM_090_100_26  vars=90  clausulas=100  k=2
p cnf 90 100
-88 76 0
-54 -13 0
-39 19 0
64 -31 0
9 -89 0
11 4 0
-16 28 0
-53 -71 0
54 -23 0
-66 -18 0
4 3 0
69 -51 0
-49 62 0
-37 -58 0
7 -23 0
-1 5 0
-34 -88 0
5 22 0
-41 -82 0
-44 56 0
-87 62 0
30 -34 0
-17 44 0
-14 16 0
77 47 0
-6 -62 0
-65 76 0
-73 -31 0
-56 59 0
-75 63 0
-87 23 0
-74 -25 0
8 -36 0
-21 -31 0
-43 -55 0
88 -69 0
-27 70 0
25 87 0
-78 -8 0
73 40 0
-19 60 0
-63 -37 0
68 -87 0
-52 -33 0
-8 16 0
65 68 0
-36 14 0
-13 -89 0
58 77 0
-61 86 0
79 -17 0
-22 -30 0
15 1 0
-35 -57 0
53 38 0
83 -24 0
-83 -46 0
-70 20 0
6 -68 0
-55 42 0
15 60 0
-37 35 0
45 -19 0
-67 45 0
10 48 0
-88 84 0
6 27 0
7 -16 0
-50 56 0
-41 84 0
6 -55 0
-18 -26 0
35 -57 0
16 -26 0
72 66 0
-21 -64 0
78 -2 0
-20 74 0
-21 35 0
29 37 0
75 -40 0
43 14 0
47 83 0
-41 32 0
85 39 0
-76 45 0
54 41 0
2 90 0
31 47 0
-61 -40 0
25 -80 0
-90 -21 0
29 -22 0
-85 7 0
9 59 0
-58 80 0
81 -12 0
-48 76 0
49 84 0
-15 32 0
