c PROBLEM_090_100_33  vars=90  clausulas=100  k=2
p cnf 90 100
14 -19 0
-56 -57 0
-85 46 0
78 83 0
-2 81 0
-59 -54 0
57 64 0
-3 13 0
-81 -38 0
-37 -79 0
23 75 0
-14 -68 0
-2 79 0
19 74 0
-31 8 0
15 72 0
-23 -59 0
40 76 0
-9 67 0
59 -67 0
-73 -27 0
-90 55 0
-5 -38 0
56 58 0
-82 -36 0
41 -67 0
48 43 0
37 -17 0
11 -28 0
87 -45 0
18 -68 0
89 -72 0
-53 64 0
-6 65 0
-26 74 0
-26 -36 0
-21 -2 0
2 -43 0
-32 29 0
37 -84 0
59 -18 0
29 -49 0
-45 52 0
-69 -8 0
-60 85 0
-78 69 0
-84 -28 0
-38 -67 0
53 70 0
-84 85 0
12 -24 0
-37 70 0
-11 -73 0
20 -41 0
82 55 0
-44 -1 0
-31 -85 0
54 -25 0
84 -14 0
-26 46 0
55 29 0
4 66 0
-50 40 0
64 -31 0
42 51 0
28 80 0
-19 -83 0
69 -67 0
87 -85 0
65 -32 0
7 -56 0
-34 -11 0
88 -65 0
62 -63 0
-50 -32 0
-32 -41 0
86 -13 0
-87 52 0
66 20 0
-71 -35 0
-2 -5 0
-39 -42 0
-89 60 0
-81 27 0
77 -35 0
-33 -36 0
-58 38 0
87 88 0
29 1 0
47 22 0
-27 16 0
-8 51 0
-20 -43 0
-30 -8 0
-61 -42 0
10 31 0
27 -19 0
66 23 0
6 17 0
-32 -66 0
