c PROBLEM_090_100_24  vars=90  clausulas=100  k=2
p cnf 90 100
28 25 0
-59 -37 0
36 -5 0
46 27 0
-71 14 0
45 85 0
-67 9 0
29 49 0
-33 -29 0
-71 50 0
-42 81 0
61 -74 0
-41 12 0
2 -41 0
-15 -61 0
-62 -78 0
85 -83 0
-21 78 0
-58 68 0
-71 -55 0
-63 11 0
60 69 0
-3 -87 0
34 -65 0
1 -44 0
-50 -24 0
-46 -35 0
-60 65 0
50 -6 0
-13 22 0
-77 -90 0
52 29 0
4 52 0
2 63 0
-4 31 0
75 -28 0
87 81 0
73 68 0
-81 -16 0
-1 54 0
78 -74 0
39 -74 0
40 -50 0
9 32 0
-66 84 0
10 -76 0
-80 7 0
47 1 0
-11 51 0
-23 -65 0
-57 -61 0
57 -26 0
7 -78 0
90 -1 0
-74 -53 0
55 -61 0
46 -20 0
45 -56 0
-84 -24 0
57 -27 0
90 -74 0
69 74 0
-70 -72 0
-66 21 0
38 -77 0
8 33 0
-13 7 0
-34 33 0
21 -69 0
-3 58 0
-49 -60 0
-57 -27 0
-13 -89 0
16 -67 0
25 85 0
68 -65 0
-30 41 0
43 -21 0
17 -39 0
64 -28 0
86 80 0
27 46 0
74 65 0
18 79 0
-89 -62 0
31 16 0
-48 -13 0
-52 72 0
-25 -55 0
63 -81 0
2 -26 0
-19 -45 0
38 -12 0
26 -88 0
55 82 0
-19 -69 0
-69 -70 0
-24 32 0
-88 87 0
-74 -19 0
