c PROBLEM_090_100_10  vars=90  clausulas=100  k=2
p cnf 90 100
-18 -74 0
-46 -35 0
-20 -67 0
-2 85 0
25 -51 0
69 -17 0
-23 7 0
-40 21 0
71 -5 0
60 27 0
-33 -24 0
25 -61 0
-40 90 0
61 37 0
81 -32 0
-33 -41 0
-45 -83 0
-83 -6 0
-6 65 0
12 -88 0
-2 26 0
6 -90 0
-3 14 0
39 -56 0
-62 68 0
-58 81 0
-53 60 0
18 -73 0
19 -89 0
-87 77 0
-74 10 0
39 44 0
22 76 0
69 -31 0
-63 35 0
-46 -9 0
-89 -18 0
81 -59 0
75 -15 0
-78 -28 0
-28 3 0
69 -17 0
-44 47 0
-50 26 0
-48 59 0
-34 -12 0
88 66 0
-1 -15 0
46 -26 0
82 -42 0
-88 -87 0
-29 -28 0
65 -71 0
86 -27 0
34 -5 0
-43 20 0
-65 89 0
-20 87 0
-81 29 0
-47 72 0
9 12 0
79 -26 0
83 -4 0
-30 26 0
16 43 0
-46 -73 0
5 -52 0
-1 75 0
8 22 0
-84 -57 0
50 -67 0
-66 -31 0
-58 -65 0
-67 -57 0
-19 2 0
-20 63 0
13 58 0
56 34 0
-85 24 0
40 41 0
-46 51 0
-33 -43 0
-13 -70 0
72 76 0
11 -24 0
52 -74 0
-54 -79 0
-19 -82 0
79 33 0
36 64 0
35 -55 0
-13 80 0
-35 63 0
-61 -34 0
64 -3 0
-11 -42 0
-29 54 0
63 -49 0
38 -22 0
58 -46 0
