c PROBLEM_090_100_04  vars=90  clausulas=100  k=2
p cnf 90 100
14 -45 0
32 -35 0
13 -75 0
36 -51 0
40 -71 0
-8 25 0
-28 -21 0
-4 17 0
-39 -41 0
10 -77 0
67 76 0
-22 -58 0
-52 -64 0
34 11 0
-21 -82 0
-34 3 0
-10 -15 0
50 -57 0
64 -33 0
-55 86 0
68 -19 0
-55 29 0
12 48 0
9 -69 0
-61 -24 0
86 -78 0
-13 79 0
57 -26 0
-29 -21 0
10 -78 0
-27 38 0
-45 -44 0
-26 31 0
-84 68 0
-79 20 0
65 -46 0
20 16 0
88 2 0
53 -83 0
-82 -54 0
-87 39 0
-7 27 0
-14 47 0
49 63 0
48 -19 0
-5 85 0
-9 43 0
83 -59 0
-85 -1 0
-42 -5 0
78 -62 0
-62 66 0
-33 15 0
-41 84 0
-56 48 0
-3 2 0
-33 30 0
27 -26 0
6 85 0
6 -73 0
81 -69 0
-31 79 0
30 -81 0
-86 -66 0
-36 71 0
72 -23 0
-29 -13 0
7 -78 0
37 -25 0
58 -45 0
-28 -33 0
-65 -66 0
57 -28 0
21 51 0
-34 39 0
73 -32 0
6 53 0
78 63 0
-84 -15 0
-40 59 0
-60 18 0
-51 -1 0
-74 11 0
-36 -39 0
-70 -60 0
21 34 0
89 63 0
-33 -88 0
24 71 0
-85 3 0
2 -49 0
42 14 0
45 64 0
12 -25 0
-39 84 0
22 -15 0
80 60 0
-83 90 0
2 62 0
-58 -15 0
