c PROBLEM_090_100_40  vars=90  clausulas=100  k=2
p cnf 90 100
43 -57 0
-33 -73 0
-53 67 0
88 27 0
-85 -17 0
41 44 0
-51 75 0
64 57 0
-18 40 0
66 -7 0
-89 29 0
77 87 0
81 27 0
-57 -10 0
22 -54 0
83 -21 0
-78 8 0
38 65 0
82 -9 0
86 -11 0
63 36 0
-30 3 0
57 63 0
15 -47 0
51 50 0
-37 -53 0
30 32 0
-32 36 0
-45 -19 0
-47 -25 0
15 -69 0
20 75 0
-19 65 0
87 59 0
-46 12 0
13 -64 0
61 -33 0
77 -13 0
-77 61 0
2 -7 0
-26 -4 0
-33 80 0
67 22 0
-38 -9 0
66 -41 0
82 -81 0
-73 -42 0
-58 14 0
-66 -7 0
45 -74 0
42 35 0
-1 -24 0
-40 -84 0
19 45 0
56 67 0
-17 87 0
-80 -55 0
-31 12 0
-43 -42 0
-2 -52 0
47 76 0
66 11 0
1 48 0
-46 -53 0
-64 2 0
55 46 0
-17 -12 0
-50 71 0
-90 49 0
-16 34 0
49 8 0
67 -17 0
-9 -37 0
19 -63 0
28 35 0
-78 -20 0
49 -32 0
-57 -48 0
47 42 0
-5 6 0
41 -86 0
-29 63 0
-18 23 0
22 52 0
43 -88 0
10 46 0
-62 -72 0
-81 -54 0
70 -68 0
-51 72 0
-62 87 0
39 58 0
17 25 0
-59 -43 0
84 -70 0
-71 -23 0
-26 -79 0
88 -44 0
-60 19 0
1 36 0
