c PROBLEM_090_100_07  vars=90  clausulas=100  k=2
p cnf 90 100
-9 -71 0
-13 -27 0
-52 73 0
-32 88 0
-66 -64 0
50 -27 0
-66 84 0
-25 -89 0
50 -79 0
9 86 0
42 84 0
60 -34 0
71 24 0
1 -6 0
-17 50 0
-35 -2 0
-79 83 0
-63 55 0
-29 15 0
25 -55 0
3 65 0
-42 -46 0
39 35 0
16 -23 0
70 -21 0
-48 -18 0
-80 74 0
-32 -73 0
-5 64 0
-54 -62 0
-80 68 0
2 -29 0
26 -10 0
-12 -17 0
37 45 0
-22 -52 0
-17 24 0
75 76 0
-17 35 0
57 64 0
-68 77 0
-29 -76 0
-22 53 0
45 52 0
-20 -55 0
30 59 0
15 -76 0
-20 -28 0
31 -12 0
-54 -12 0
23 -65 0
-71 -33 0
67 89 0
-23 32 0
8 -33 0
14 76 0
29 28 0
25 38 0
79 60 0
-29 50 0
26 3 0
70 83 0
-18 -78 0
-27 35 0
75 -82 0
-49 -36 0
-69 -51 0
-15 -11 0
-6 19 0
47 37 0
71 -29 0
-79 -51 0
-42 56 0
10 -3 0
-44 -14 0
-72 86 0
-88 -74 0
-20 -40 0
44 -62 0
43 -47 0
-14 52 0
-85 4 0
11 -23 0
-19 -51 0
3 -29 0
35 25 0
-31 39 0
90 41 0
-15 18 0
7 50 0
-27 81 0
68 -72 0
10 69 0
-18 15 0
-16 -81 0
41 42 0
-21 48 0
-23 -74 0
66 -58 0
87 61 0
