c PROBLEM_090_100_32  vars=90  clausulas=100  k=2
p cnf 90 100
58 -85 0
-55 -45 0
6 -24 0
-58 -36 0
-73 63 0
64 -8 0
-83 36 0
-49 65 0
44 20 0
12 29 0
-13 52 0
20 22 0
-37 78 0
8 -46 0
-86 14 0
-30 -5 0
-84 -74 0
-72 69 0
6 -29 0
41 -50 0
15 61 0
23 51 0
-31 9 0
38 -58 0
43 -88 0
-60 -46 0
-56 -74 0
71 51 0
-67 8 0
-21 19 0
-77 -67 0
-38 17 0
9 81 0
-40 -50 0
59 -75 0
-57 52 0
-80 9 0
41 81 0
-2 33 0
65 67 0
-64 -29 0
16 65 0
33 -83 0
37 82 0
-10 63 0
-36 -89 0
89 54 0
-23 48 0
-12 -45 0
-78 7 0
19 16 0
33 51 0
80 27 0
15 -19 0
84 -34 0
36 -69 0
-10 -68 0
62 -61 0
-50 -24 0
-90 -68 0
30 66 0
-42 -27 0
18 -84 0
15 35 0
-70 -4 0
-63 44 0
-26 -10 0
53 28 0
74 -38 0
-38 -32 0
-32 -81 0
-62 53 0
-18 31 0
-82 -30 0
39 88 0
63 -27 0
-15 70 0
14 5 0
-57 -89 0
47 17 0
69 -60 0
-82 76 0
-40 -71 0
11 -57 0
3 84 0
66 70 0
-25 -34 0
74 17 0
-88 47 0
-26 -39 0
-59 2 0
-3 33 0
-26 54 0
14 -46 0
-1 -25 0
-10 80 0
39 75 0
-87 79 0
86 -41 0
56 -42 0
