c PROBLEM_090_100_03  vars=90  clausulas=100  k=2
p cnf 90 100
-76 70 0
-17 -51 0
44 -76 0
27 -72 0
65 -29 0
-23 -82 0
-6 -41 0
-60 -3 0
-6 -87 0
-57 10 0
-6 -30 0
78 -70 0
-26 -11 0
17 29 0
-44 -84 0
-11 -68 0
43 -39 0
16 -81 0
-59 -90 0
8 -55 0
51 20 0
14 -39 0
77 -30 0
-34 -59 0
17 -32 0
86 -31 0
45 48 0
-19 -40 0
64 56 0
-13 32 0
39 -18 0
-69 59 0
-36 -10 0
9 52 0
45 -49 0
-16 81 0
-42 -51 0
7 47 0
2 89 0
-5 -87 0
14 22 0
-62 12 0
76 -64 0
80 -57 0
-38 -33 0
-61 -15 0
-35 -16 0
83 28 0
71 63 0
-17 -73 0
-21 70 0
74 -40 0
-71 79 0
30 58 0
-3 64 0
35 -60 0
4 -25 0
57 19 0
-9 59 0
-22 33 0
85 81 0
-67 -47 0
33 75 0
63 87 0
-51 -37 0
-24 -21 0
-2 -68 0
62 -69 0
-50 -67 0
84 8 0
-71 29 0
-49 41 0
5 -26 0
-79 -54 0
66 6 0
-87 -38 0
-47 28 0
-49 68 0
22 -67 0
53 -68 0
37 -31 0
-1 -30 0
41 -22 0
-20 -16 0
77 -8 0
37 -84 0
-58 53 0
-56 66 0
57 -53 0
-49 -90 0
1 88 0
-6 16 0
44 3 0
55 -14 0
46 16 0
82 41 0
-82 35 0
19 57 0
63 -35 0
8 -77 0
