c PROBLEM_090_100_19  vars=90  clausulas=100  k=2
p cnf 90 100
-26 -16 0
12 20 0
-18 -42 0
74 -41 0
-77 -50 0
-17 -86 0
-76 -60 0
48 55 0
60 -69 0
-21 -83 0
-86 -27 0
-25 -17 0
-76 -74 0
-75 56 0
-67 16 0
74 43 0
34 -38 0
13 55 0
33 49 0
-75 25 0
8 33 0
39 37 0
-78 58 0
78 -79 0
-52 -61 0
-65 -11 0
46 -14 0
-24 64 0
7 -6 0
35 78 0
14 35 0
-12 44 0
15 -85 0
-68 79 0
-82 61 0
43 -64 0
-28 66 0
34 -59 0
-55 -78 0
-88 -63 0
69 35 0
3 14 0
89 -12 0
-69 -64 0
2 -48 0
-39 85 0
41 -58 0
-9 -80 0
-25 6 0
39 -82 0
-48 -15 0
45 -3 0
-74 80 0
-56 -55 0
52 -7 0
-8 15 0
-84 75 0
27 47 0
-27 64 0
45 75 0
-72 -32 0
-19 -53 0
-89 -32 0
56 -1 0
-30 58 0
20 -52 0
71 -86 0
32 -16 0
48 -6 0
85 -54 0
17 -43 0
81 37 0
-4 -23 0
70 76 0
51 -19 0
38 45 0
89 10 0
62 -65 0
-90 -85 0
37 44 0
40 60 0
31 6 0
-82 3 0
22 -47 0
-56 -53 0
-83 89 0
90 57 0
63 19 0
69 36 0
56 48 0
41 8 0
-20 -29 0
-73 40 0
-63 -28 0
-87 -20 0
70 -4 0
88 -5 0
-86 -56 0
70 34 0
-80 10 0
