c PROBLEM_090_100_37  vars=90  clausulas=100  k=2
p cnf 90 100
-51 -73 0
-1 -45 0
78 45 0
77 65 0
89 26 0
-53 50 0
-29 -60 0
22 -69 0
-44 -54 0
54 76 0
-74 30 0
-14 84 0
71 -10 0
-51 63 0
-75 -58 0
83 11 0
-47 -89 0
-37 -33 0
-42 -59 0
-85 48 0
-22 78 0
19 -45 0
-41 88 0
-37 -11 0
-15 56 0
25 -84 0
-28 52 0
23 -75 0
55 -27 0
31 -83 0
81 88 0
90 -12 0
-12 -65 0
82 72 0
65 55 0
-10 -89 0
8 -80 0
42 45 0
-63 36 0
-69 -35 0
24 62 0
16 -31 0
70 88 0
-68 -5 0
-9 89 0
-79 7 0
84 -39 0
-3 -12 0
25 -39 0
-67 -20 0
64 -83 0
-40 -31 0
33 49 0
36 -83 0
14 -20 0
-58 -16 0
46 -86 0
12 33 0
34 24 0
-46 -35 0
18 1 0
-32 44 0
79 64 0
50 -4 0
44 32 0
-13 -52 0
6 62 0
70 66 0
55 -28 0
-67 72 0
64 -89 0
-65 -59 0
-19 -43 0
-35 -56 0
-6 19 0
-17 54 0
49 89 0
-15 26 0
-21 -39 0
45 -33 0
-7 40 0
-53 -71 0
68 88 0
24 -81 0
50 -13 0
-49 39 0
-65 29 0
-38 -65 0
-5 -81 0
11 -21 0
-49 29 0
87 18 0
3 43 0
-2 -48 0
-40 -57 0
-19 -4 0
57 47 0
-28 -61 0
-60 23 0
78 -77 0
