c PROBLEM_090_100_42  vars=90  clausulas=100  k=2
p cnf 90 100
4 28 0
89 14 0
-53 54 0
-90 -2 0
-11 6 0
88 -47 0
-55 -33 0
27 15 0
89 -42 0
34 -40 0
-8 60 0
-46 -8 0
-59 46 0
-12 -58 0
42 53 0
27 -44 0
56 -89 0
40 7 0
87 68 0
41 81 0
24 -1 0
6 -22 0
-69 -15 0
41 -57 0
-17 -49 0
61 75 0
-86 21 0
89 88 0
-3 -12 0
30 45 0
-75 71 0
-31 65 0
25 50 0
35 82 0
23 45 0
-38 -53 0
20 82 0
-84 83 0
-46 49 0
-42 24 0
-16 80 0
39 -36 0
-10 -5 0
-16 59 0
-82 -4 0
-69 4 0
-51 79 0
-32 43 0
-36 -13 0
-86 -70 0
-47 -23 0
11 -33 0
67 15 0
44 -82 0
30 -62 0
21 -81 0
56 15 0
16 -20 0
7 1 0
-85 77 0
63 84 0
31 -6 0
10 -17 0
58 39 0
14 -40 0
33 -41 0
-67 -54 0
-43 4 0
-61 48 0
21 85 0
60 -19 0
66 -11 0
-21 -44 0
-75 15 0
-10 37 0
-77 -74 0
80 4 0
40 -27 0
78 -5 0
-10 -3 0
53 -49 0
-31 2 0
-71 26 0
87 -7 0
16 -67 0
62 -85 0
7 -50 0
-65 1 0
-18 -76 0
-83 -42 0
-73 -13 0
23 -74 0
50 -9 0
-87 -52 0
-64 72 0
-34 -40 0
54 -74 0
-22 -29 0
-61 39 0
-88 49 0
