c PROBLEM_090_100_35  vars=90  clausulas=100  k=2
p cnf 90 100
-16 49 0
-80 84 0
-54 -87 0
-57 -52 0
-38 -45 0
44 -57 0
68 -74 0
-90 48 0
-15 -26 0
38 64 0
-31 76 0
89 -33 0
-86 -62 0
2 6 0
-72 -75 0
73 -29 0
-84 -68 0
-85 -46 0
-44 -81 0
-16 58 0
-80 -48 0
-51 47 0
-28 -82 0
40 77 0
31 -34 0
-20 -14 0
-53 -59 0
86 -81 0
67 59 0
13 -49 0
65 58 0
-69 1 0
90 37 0
85 -65 0
-52 -90 0
-30 -47 0
35 42 0
64 48 0
88 -28 0
17 82 0
61 -17 0
-87 -66 0
-61 -4 0
63 83 0
18 26 0
49 29 0
-25 -42 0
66 -59 0
74 24 0
90 86 0
-81 -12 0
40 -82 0
34 55 0
28 11 0
32 -70 0
-86 -22 0
-29 76 0
-70 19 0
87 -15 0
30 19 0
-13 72 0
-3 36 0
-39 -6 0
55 23 0
-85 23 0
-8 78 0
-24 -65 0
-13 52 0
33 -73 0
7 -72 0
-9 33 0
15 55 0
15 -31 0
28 -48 0
-27 75 0
-10 -50 0
79 8 0
77 -67 0
-5 51 0
8 63 0
32 16 0
-15 48 0
77 -41 0
70 -23 0
-34 90 0
21 -71 0
68 84 0
35 53 0
65 -1 0
-7 67 0
46 -18 0
84 -85 0
-43 25 0
-53 56 0
-60 -11 0
-34 5 0
-5 -38 0
-39 -60 0
-9 -88 0
56 -57 0
