c PROBLEM_090_100_25  vars=90  clausulas=100  k=2
p cnf 90 100
-8 11 0
53 -5 0
-24 -25 0
84 -82 0
-77 39 0
81 -53 0
7 62 0
-25 50 0
-32 -21 0
-47 21 0
-88 12 0
53 65 0
6 -56 0
10 -26 0
-80 34 0
-63 61 0
-32 -90 0
-17 -90 0
31 73 0
9 62 0
51 22 0
64 -55 0
49 76 0
-8 65 0
30 -54 0
73 83 0
57 48 0
-88 -24 0
-56 -70 0
-85 -3 0
87 -89 0
63 -67 0
4 37 0
64 10 0
25 88 0
82 -66 0
-43 -89 0
3 69 0
26 -78 0
-41 -5 0
59 64 0
67 31 0
7 1 0
-15 -16 0
85 71 0
34 19 0
4 6 0
-20 -49 0
58 -2 0
2 90 0
-4 -6 0
56 -86 0
76 60 0
-16 45 0
-26 -57 0
41 24 0
-11 8 0
-23 -19 0
-81 85 0
24 35 0
-40 -78 0
80 -35 0
17 68 0
36 -14 0
-62 -15 0
-41 -55 0
37 -84 0
-42 -28 0
81 -24 0
-21 78 0
-87 -33 0
51 82 0
-6 -70 0
-44 -65 0
74 -28 0
57 -48 0
-33 18 0
9 54 0
-20 -71 0
-71 -74 0
-58 87 0
-72 24 0
31 -15 0
17 2 0
8 -65 0
-75 -38 0
24 -81 0
32 60 0
-46 -79 0
-51 -46 0
61 -64 0
29 52 0
-22 -5 0
72 -56 0
-27 -77 0
-5 -13 0
-76 89 0
-38 -4 0
-44 6 0
-86 -27 0
