c PROBLEM_090_100_12  vars=90  clausulas=100  k=2
p cnf 90 100
21 54 0
11 76 0
-53 68 0
67 69 0
77 59 0
71 -78 0
90 45 0
-31 42 0
-29 -15 0
87 -24 0
-76 -66 0
-25 80 0
-81 -74 0
78 -21 0
47 53 0
40 -52 0
-33 -45 0
70 -53 0
-40 -10 0
-80 -34 0
-81 -61 0
-32 -88 0
6 -31 0
-2 -65 0
89 -49 0
-45 -27 0
75 60 0
-72 3 0
-26 17 0
-59 82 0
-74 71 0
-86 -17 0
-51 69 0
-2 -77 0
-13 -83 0
75 11 0
-24 52 0
-10 30 0
-17 31 0
49 -50 0
-1 -26 0
-46 -18 0
73 -39 0
-77 55 0
66 -7 0
5 -51 0
35 14 0
90 85 0
-20 -63 0
42 -21 0
15 88 0
-38 -75 0
-64 14 0
16 -47 0
24 -36 0
4 25 0
84 61 0
-64 -8 0
-80 -34 0
-16 39 0
-44 -28 0
43 33 0
-70 -37 0
55 -23 0
80 74 0
-27 -39 0
86 18 0
-9 84 0
-2 -88 0
-84 -25 0
-5 12 0
-53 -12 0
63 57 0
56 -87 0
12 23 0
-79 -17 0
62 48 0
-58 82 0
-14 -46 0
-78 8 0
38 79 0
48 76 0
44 5 0
19 39 0
62 -85 0
-27 37 0
77 72 0
-55 -44 0
41 -3 0
-16 52 0
19 43 0
87 64 0
79 46 0
90 81 0
50 22 0
-58 -37 0
55 -65 0
-66 -1 0
60 72 0
9 14 0
