c PROBLEM_090_100_29  vars=90  clausulas=100  k=2
p cnf 90 100
53 31 0
51 -78 0
18 30 0
3 79 0
64 -50 0
13 -70 0
79 -10 0
44 77 0
-38 49 0
-54 -7 0
-60 -46 0
-90 87 0
28 9 0
31 87 0
30 -14 0
-49 -43 0
84 69 0
66 72 0
18 -82 0
33 -3 0
-55 -1 0
20 35 0
-38 8 0
56 12 0
50 -71 0
56 -63 0
87 -69 0
67 57 0
45 -85 0
-1 57 0
-73 -27 0
74 -83 0
51 71 0
12 46 0
89 -54 0
-66 88 0
-11 52 0
76 37 0
-25 42 0
83 -90 0
-65 39 0
22 32 0
-10 36 0
-89 -5 0
2 -34 0
5 -15 0
-36 -47 0
59 -40 0
-47 61 0
81 4 0
21 -80 0
44 -41 0
41 26 0
68 13 0
-2 66 0
28 -56 0
-80 -32 0
-3 -57 0
31 62 0
42 -29 0
-5 -29 0
26 67 0
-11 16 0
-19 4 0
62 -68 0
73 46 0
44 -73 0
85 19 0
72 -16 0
-24 -27 0
84 -58 0
54 62 0
-15 11 0
-44 -42 0
6 -62 0
64 -74 0
-69 50 0
2 -69 0
-29 -8 0
-89 -75 0
57 75 0
-14 -51 0
9 -32 0
17 49 0
18 31 0
-1 -20 0
25 33 0
65 43 0
57 -34 0
23 -21 0
82 54 0
33 -41 0
-48 4 0
26 -78 0
21 14 0
71 -28 0
13 -70 0
37 -85 0
53 -77 0
-86 -19 0
