c PROBLEM_090_100_22  vars=90  clausulas=100  k=2
p cnf 90 100
-79 24 0
-61 64 0
40 75 0
-46 71 0
-16 -90 0
46 -74 0
-15 42 0
-29 59 0
60 30 0
11 -77 0
58 -9 0
-71 11 0
37 38 0
-46 -27 0
-32 70 0
39 -50 0
84 -64 0
-1 47 0
-28 87 0
36 -20 0
-49 -86 0
-10 -32 0
-33 -34 0
23 74 0
84 37 0
-68 84 0
13 33 0
67 -62 0
38 66 0
-86 -76 0
55 -8 0
-41 -45 0
7 -25 0
-4 28 0
3 83 0
74 53 0
-70 20 0
73 17 0
-61 48 0
-80 -19 0
35 23 0
-10 51 0
-87 -83 0
32 51 0
-60 35 0
-31 -39 0
-64 -22 0
35 -67 0
-76 -49 0
-52 -4 0
-82 -48 0
-12 -35 0
-65 -66 0
-9 -22 0
53 23 0
-5 -80 0
58 -85 0
-36 -56 0
51 -44 0
10 81 0
41 -65 0
-78 69 0
-18 63 0
6 -81 0
-44 15 0
-62 45 0
80 -65 0
-17 -63 0
-71 19 0
-52 -8 0
44 86 0
50 63 0
-72 -85 0
57 74 0
-42 -75 0
-26 56 0
-67 1 0
-21 24 0
-49 -10 0
5 29 0
17 -44 0
32 41 0
-43 -90 0
77 8 0
-56 -88 0
54 14 0
-48 -21 0
-76 -37 0
-49 -74 0
53 82 0
2 -63 0
9 -86 0
53 -38 0
-43 8 0
57 -53 0
-83 -89 0
22 -24 0
66 -69 0
12 -45 0
89 76 0
