c PROBLEM_090_100_27  vars=90  clausulas=100  k=2
p cnf 90 100
-80 61 0
-80 5 0
67 -46 0
90 62 0
85 -88 0
-60 -26 0
38 -33 0
46 73 0
-54 23 0
-52 53 0
-71 -6 0
-37 -32 0
43 78 0
61 -11 0
-49 -51 0
43 77 0
-34 46 0
30 -24 0
7 -75 0
-19 45 0
-2 13 0
61 64 0
-80 -42 0
67 -33 0
50 31 0
80 -72 0
-51 -85 0
-60 4 0
-29 53 0
-78 -57 0
-38 20 0
87 8 0
55 -56 0
49 18 0
-58 74 0
76 -75 0
39 34 0
-15 22 0
8 27 0
-79 23 0
-69 33 0
-12 -27 0
-56 -3 0
-44 13 0
15 87 0
68 20 0
24 48 0
-71 -28 0
1 -22 0
86 73 0
-9 44 0
-57 -10 0
-8 -40 0
54 -10 0
43 -18 0
38 -73 0
73 89 0
-22 -35 0
-48 10 0
-70 -51 0
-18 21 0
25 16 0
57 39 0
71 33 0
6 86 0
34 -79 0
7 61 0
-32 -82 0
-63 9 0
81 -70 0
22 8 0
-25 46 0
36 -4 0
42 84 0
-71 -21 0
65 -4 0
50 41 0
-57 47 0
77 83 0
14 -35 0
-18 -1 0
-16 71 0
-56 -66 0
41 53 0
75 -68 0
17 -72 0
20 -47 0
-41 -75 0
-82 -57 0
-28 64 0
69 -10 0
63 -69 0
67 -66 0
-66 88 0
4 6 0
11 -43 0
-65 30 0
59 -82 0
-30 86 0
-78 36 0
