c PROBLEM_090_100_13  vars=90  clausulas=100  k=2
p cnf 90 100
-39 -1 0
-71 -19 0
-29 16 0
-55 -49 0
-3 -54 0
-26 -40 0
-87 -72 0
18 53 0
77 -76 0
59 -68 0
-64 -45 0
1 -57 0
1 -66 0
-54 76 0
-27 16 0
-71 32 0
13 -66 0
-70 31 0
-70 -47 0
-34 57 0
-54 35 0
-36 -28 0
62 52 0
-44 -53 0
-47 -38 0
-42 8 0
64 31 0
53 -1 0
56 -30 0
-30 22 0
87 -30 0
-43 90 0
-71 -6 0
-81 39 0
32 -72 0
13 -64 0
17 24 0
-7 -42 0
-78 -40 0
9 -62 0
4 -55 0
-88 71 0
69 -71 0
-19 -33 0
4 -71 0
68 50 0
-73 80 0
-76 -20 0
-10 -27 0
-79 -49 0
24 -68 0
-2 -18 0
-45 -30 0
51 -25 0
24 -40 0
33 41 0
-47 81 0
83 21 0
-47 12 0
-59 -54 0
-40 -6 0
-90 5 0
-44 55 0
9 88 0
-53 -20 0
-24 -85 0
-48 11 0
-74 65 0
77 74 0
51 -84 0
-23 69 0
-24 16 0
45 61 0
-48 -4 0
42 14 0
-10 -7 0
64 -86 0
-75 82 0
-28 -34 0
-53 -31 0
-75 -15 0
89 -82 0
-46 40 0
-80 37 0
78 -56 0
-73 -78 0
-42 -63 0
46 78 0
-58 44 0
-15 -18 0
-47 44 0
-56 86 0
-82 42 0
45 -26 0
-70 -31 0
-5 -84 0
29 60 0
-6 -67 0
90 34 0
70 -77 0
