c PROBLEM_090_100_46  vars=90  clausulas=100  k=2
p cnf 90 100
-1 -11 0
-62 28 0
-14 -8 0
63 -51 0
57 49 0
-90 -45 0
-81 -9 0
-66 54 0
-77 30 0
-6 14 0
-57 -16 0
-77 -71 0
-54 -70 0
-2 1 0
-10 62 0
-78 76 0
26 74 0
83 44 0
-66 57 0
-27 85 0
20 -88 0
-23 -69 0
-88 80 0
51 34 0
-67 62 0
-64 -8 0
57 -41 0
-12 -38 0
-13 40 0
-37 -58 0
-65 21 0
35 -59 0
-89 -3 0
-38 -20 0
66 44 0
60 17 0
14 34 0
54 -86 0
50 -83 0
23 -43 0
-84 -43 0
69 -87 0
-26 -57 0
-74 13 0
-10 3 0
-20 -52 0
-35 -5 0
2 -62 0
-82 -53 0
-18 12 0
-44 21 0
68 39 0
-79 45 0
56 -11 0
-72 -63 0
25 55 0
3 -36 0
70 5 0
-47 86 0
46 14 0
-75 -88 0
79 -12 0
50 33 0
31 -60 0
-24 33 0
54 7 0
1 22 0
36 11 0
-55 89 0
-75 -52 0
-6 65 0
85 39 0
74 76 0
89 29 0
-80 -30 0
-46 -25 0
-15 -36 0
48 23 0
74 -41 0
73 32 0
86 20 0
25 -18 0
-5 9 0
56 -71 0
12 90 0
87 -45 0
-2 56 0
61 85 0
66 68 0
-49 -54 0
58 18 0
19 4 0
-70 -2 0
-25 41 0
46 42 0
15 21 0
-46 -82 0
-73 -69 0
-82 22 0
-49 6 0
