c PROBLEM_090_100_20  vars=90  clausulas=100  k=2
p cnf 90 100
40 -20 0
-7 -38 0
-12 -45 0
88 -76 0
32 49 0
-79 86 0
-73 -35 0
69 -10 0
-79 -50 0
-18 35 0
-37 4 0
-77 36 0
-31 -15 0
-78 66 0
-31 -3 0
-64 84 0
42 50 0
80 -63 0
-30 -85 0
71 90 0
-12 75 0
-44 -52 0
-74 -8 0
-3 9 0
-9 -22 0
64 26 0
-41 81 0
-55 65 0
54 -22 0
16 22 0
-53 -86 0
79 75 0
-2 -1 0
33 59 0
-24 -85 0
37 -32 0
30 -74 0
-9 28 0
-55 88 0
-61 90 0
60 -73 0
-72 -42 0
80 31 0
-86 76 0
9 -73 0
-23 -11 0
-17 50 0
73 48 0
-21 -40 0
38 -9 0
71 -46 0
-66 -5 0
-19 18 0
43 -68 0
-8 44 0
-12 -62 0
-23 -83 0
-19 45 0
39 67 0
53 30 0
5 24 0
-64 62 0
-59 17 0
-51 46 0
86 29 0
59 -34 0
75 -81 0
74 -77 0
-74 2 0
-25 -44 0
-47 86 0
-50 80 0
6 59 0
14 -4 0
82 83 0
85 -7 0
-28 -80 0
67 -57 0
13 52 0
-89 86 0
12 85 0
27 -40 0
29 -58 0
-41 -11 0
89 20 0
-78 -6 0
13 45 0
87 78 0
-32 6 0
89 -70 0
11 -56 0
-67 -49 0
67 22 0
90 -45 0
26 41 0
47 -86 0
23 25 0
-25 18 0
-72 63 0
-52 -61 0
