c PROBLEM_090_100_01  vars=90  clausulas=100  k=2
p cnf 90 100
-61 -5 0
40 27 0
-53 -3 0
87 -41 0
-45 28 0
59 -79 0
44 -13 0
88 -51 0
-36 -19 0
54 -42 0
57 -65 0
4 -38 0
-78 -43 0
37 80 0
-64 31 0
-36 -86 0
-68 -6 0
-58 -61 0
-49 81 0
5 -21 0
-72 -57 0
-32 -75 0
-26 14 0
-51 -52 0
-85 5 0
62 15 0
30 -52 0
-4 -43 0
23 -56 0
-39 3 0
-63 73 0
-29 -44 0
-45 -77 0
-47 34 0
-11 58 0
-25 14 0
-14 -78 0
-55 -89 0
70 -75 0
-24 -87 0
20 -73 0
-54 -81 0
-14 -81 0
-5 76 0
-22 49 0
-52 62 0
15 44 0
-73 69 0
8 -44 0
19 -79 0
62 77 0
74 -7 0
66 60 0
-90 16 0
-88 55 0
89 31 0
32 -83 0
4 -51 0
21 -2 0
89 33 0
47 86 0
-56 54 0
-82 -42 0
-10 -21 0
-44 24 0
13 77 0
47 -32 0
-24 -27 0
87 -69 0
-46 67 0
85 6 0
-87 -51 0
-87 23 0
-34 6 0
-84 2 0
39 -37 0
-71 -76 0
17 -35 0
63 -78 0
57 12 0
-36 -24 0
-77 -18 0
-13 -56 0
-57 -1 0
-68 -36 0
-73 -8 0
-15 -12 0
-4 -89 0
67 -27 0
8 -70 0
6 -60 0
18 -85 0
19 47 0
78 -38 0
-48 58 0
-65 -48 0
48 -73 0
72 58 0
14 9 0
-72 50 0
