c PROBLEM_090_100_21  vars=90  clausulas=100  k=2
p cnf 90 100
-74 27 0
-3 -40 0
-76 57 0
-20 13 0
-50 -75 0
87 8 0
52 -56 0
-72 80 0
-26 -73 0
-76 37 0
-29 -86 0
31 8 0
33 -62 0
72 -19 0
33 22 0
-31 -19 0
-78 58 0
78 -4 0
-79 -26 0
2 60 0
-5 -18 0
16 -47 0
30 -65 0
-69 83 0
-34 -79 0
51 89 0
66 20 0
18 -42 0
37 -53 0
75 -77 0
-34 38 0
81 -41 0
4 -57 0
-33 -18 0
79 -76 0
1 -49 0
-46 39 0
61 36 0
-38 -59 0
86 -29 0
-60 15 0
-50 -25 0
-82 42 0
-88 37 0
-36 81 0
85 10 0
15 37 0
-81 64 0
-73 23 0
-14 32 0
-85 -61 0
67 -88 0
55 -17 0
13 87 0
-9 35 0
87 36 0
22 -75 0
-66 -59 0
42 80 0
-43 -29 0
5 -17 0
-41 -69 0
32 -18 0
-53 4 0
-71 -62 0
15 4 0
-49 -7 0
45 -42 0
-73 4 0
15 73 0
-63 28 0
-51 -75 0
8 56 0
11 -80 0
59 80 0
9 14 0
73 -60 0
10 -81 0
62 -60 0
-5 68 0
-73 55 0
-42 -35 0
-23 69 0
21 -42 0
-23 39 0
-45 -6 0
-10 -13 0
-54 -69 0
24 70 0
84 47 0
-88 -54 0
-12 -90 0
67 -39 0
20 -14 0
1 -13 0
-3 -55 0
68 22 0
44 -48 0
54 -2 0
9 65 0
