c PROBLEM_070_100_09  vars=70  clausulas=100  k=2
p cnf 70 100
-41 14 0
-59 -61 0
-35 56 0
-40 6 0
-62 -26 0
13 -39 0
-25 -47 0
-45 64 0
-14 49 0
-23 -53 0
22 -51 0
-67 43 0
-59 46 0
-54 -27 0
14 34 0
-55 70 0
-1 59 0
8 64 0
-2 35 0
-69 9 0
4 -31 0
-70 68 0
-50 -32 0
38 -7 0
65 3 0
-12 -17 0
-63 -51 0
36 -41 0
12 -63 0
24 16 0
56 18 0
-57 -44 0
-66 35 0
-54 -35 0
-11 41 0
51 -49 0
-37 -32 0
21 69 0
14 -4 0
-28 27 0
-57 14 0
-53 -13 0
68 14 0
-21 30 0
27 -44 0
-63 55 0
-17 52 0
-33 -10 0
26 65 0
32 -13 0
-7 -22 0
61 52 0
19 49 0
15 -52 0
-65 -33 0
-48 29 0
-41 3 0
-41 54 0
68 54 0
60 -23 0
-25 43 0
47 60 0
8 -53 0
-41 -43 0
11 -60 0
53 35 0
20 34 0
-59 -34 0
-56 62 0
-51 30 0
42 19 0
25 6 0
27 51 0
49 44 0
-7 -5 0
19 -44 0
-26 65 0
-36 55 0
-64 -37 0
22 -18 0
-13 49 0
47 -51 0
-10 24 0
37 23 0
-38 -13 0
-59 -66 0
-24 62 0
-2 -60 0
-5 70 0
-24 -69 0
-60 45 0
48 14 0
20 42 0
48 65 0
-39 -18 0
-28 -44 0
-10 39 0
12 39 0
31 -67 0
-46 -58 0
