c PROBLEM_070_100_24  vars=70  clausulas=100  k=2
p cnf 70 100
50 -8 0
24 26 0
-14 48 0
-11 47 0
-36 -49 0
-26 58 0
32 -50 0
1 -40 0
-17 32 0
22 15 0
-46 33 0
-21 -39 0
4 -16 0
-15 8 0
22 50 0
-49 -45 0
-19 -56 0
41 12 0
-38 66 0
-60 66 0
-31 12 0
65 52 0
54 6 0
43 33 0
-31 -35 0
34 -17 0
53 39 0
41 60 0
51 32 0
-10 1 0
67 2 0
63 26 0
66 -8 0
12 -24 0
-2 47 0
-47 -68 0
-70 9 0
-27 -69 0
-10 -6 0
-64 -2 0
-27 64 0
5 15 0
-52 -18 0
9 24 0
52 -51 0
46 60 0
-4 28 0
-15 -13 0
-15 -69 0
45 38 0
-15 -43 0
-36 -23 0
-16 -53 0
6 -22 0
62 61 0
38 -9 0
-66 39 0
-61 2 0
-26 37 0
29 47 0
31 66 0
9 -37 0
-12 -23 0
-35 -4 0
-58 -54 0
-30 24 0
-62 30 0
-22 62 0
-9 -51 0
-38 64 0
-51 23 0
-13 42 0
-44 3 0
52 31 0
24 -48 0
44 6 0
25 -7 0
25 -10 0
-22 19 0
-5 -32 0
30 24 0
-26 -15 0
-15 57 0
8 -42 0
-51 -54 0
-20 4 0
68 -59 0
-37 65 0
-20 30 0
15 -12 0
16 11 0
-68 -42 0
-28 69 0
34 -5 0
18 -70 0
-32 -55 0
43 -11 0
-65 23 0
66 28 0
-35 -55 0
