c PROBLEM_070_100_23  vars=70  clausulas=100  k=2
p cnf 70 100
27 1 0
-60 20 0
15 7 0
-30 -48 0
12 -37 0
-19 7 0
16 -45 0
-7 -43 0
-14 15 0
-48 17 0
-20 41 0
70 16 0
13 54 0
-45 -13 0
-17 44 0
22 50 0
-47 -54 0
-47 42 0
22 70 0
-6 1 0
-70 -45 0
-31 59 0
-53 25 0
-62 -19 0
-11 -3 0
58 55 0
25 6 0
29 63 0
9 -23 0
-59 -50 0
44 -16 0
33 9 0
63 -50 0
-33 -67 0
16 18 0
-4 49 0
37 -10 0
8 7 0
21 35 0
-61 28 0
-17 -20 0
-58 33 0
-48 58 0
56 52 0
-54 -68 0
56 61 0
-25 47 0
-50 35 0
-8 35 0
-45 64 0
22 15 0
55 -5 0
-20 -64 0
23 -18 0
45 -23 0
22 -55 0
55 50 0
-3 50 0
48 51 0
62 -14 0
51 39 0
65 -8 0
-56 -52 0
57 27 0
56 54 0
68 -31 0
62 54 0
-63 -46 0
68 38 0
-52 8 0
24 53 0
26 -62 0
-10 6 0
-42 61 0
57 -2 0
-6 -55 0
21 -5 0
6 -27 0
42 -10 0
-24 -60 0
-6 31 0
-28 -58 0
-26 15 0
-15 24 0
-62 13 0
-32 65 0
-45 66 0
58 47 0
19 -59 0
-38 26 0
-65 39 0
-69 22 0
-40 -50 0
29 -67 0
-36 12 0
-54 -62 0
-59 -36 0
10 34 0
-20 -51 0
8 -61 0
