c PROBLEM_070_100_19  vars=70  clausulas=100  k=2
p cnf 70 100
-17 61 0
-7 -69 0
64 32 0
57 -40 0
-22 9 0
-8 -23 0
-21 4 0
-58 22 0
19 -60 0
-24 38 0
16 -59 0
-7 27 0
-7 -11 0
-18 46 0
55 43 0
-50 68 0
23 -64 0
44 50 0
63 -53 0
-3 -51 0
-42 2 0
-6 -11 0
-31 -55 0
64 -35 0
-49 50 0
-65 -66 0
-30 -12 0
49 29 0
45 59 0
26 -23 0
62 29 0
-68 -12 0
5 58 0
1 -16 0
-13 52 0
38 50 0
-53 37 0
15 28 0
-64 -27 0
12 -11 0
70 4 0
42 -15 0
51 -36 0
-64 4 0
-19 -3 0
56 -26 0
13 17 0
19 -24 0
-49 21 0
61 -18 0
63 -20 0
-23 66 0
41 58 0
34 -64 0
-44 35 0
-56 -63 0
-3 68 0
51 -10 0
-6 -70 0
49 -6 0
-50 4 0
-24 10 0
-5 59 0
-7 -40 0
21 25 0
-68 -9 0
47 -12 0
4 39 0
-64 -16 0
11 37 0
49 8 0
40 -6 0
-14 -19 0
-51 -3 0
-38 -31 0
67 -29 0
31 4 0
-10 67 0
69 48 0
28 39 0
33 65 0
4 -26 0
-37 -67 0
2 -21 0
-9 -70 0
-35 68 0
53 39 0
40 -44 0
-46 2 0
-46 -25 0
-1 -54 0
-70 9 0
-66 18 0
-32 -12 0
70 -65 0
-2 28 0
-19 -52 0
-34 31 0
66 -56 0
54 6 0
