c PROBLEM_070_100_33  vars=70  clausulas=100  k=2
p cnf 70 100
-28 -13 0
-18 53 0
-27 2 0
56 44 0
62 47 0
-45 -32 0
6 69 0
-65 31 0
-49 4 0
-18 -13 0
-52 -21 0
42 56 0
-35 51 0
20 33 0
-12 58 0
-21 -28 0
-31 1 0
45 9 0
-8 -23 0
41 -40 0
-16 -30 0
-35 -55 0
19 -3 0
-18 30 0
29 -52 0
1 55 0
-4 -9 0
-27 19 0
-56 60 0
3 -70 0
59 -65 0
-18 32 0
-36 -67 0
-7 12 0
40 55 0
21 -64 0
10 14 0
5 -48 0
55 28 0
33 1 0
9 -14 0
-68 -46 0
8 9 0
-61 -53 0
-64 52 0
-14 15 0
-13 -2 0
26 67 0
-63 -50 0
-35 47 0
30 -6 0
32 -7 0
-30 8 0
-40 -36 0
64 27 0
22 25 0
-10 35 0
60 -57 0
52 46 0
-15 -30 0
-26 39 0
32 -21 0
66 -51 0
46 -51 0
50 43 0
2 8 0
-29 57 0
-56 -30 0
45 -56 0
-24 -66 0
54 20 0
43 -53 0
-33 34 0
68 41 0
-58 5 0
-36 -67 0
61 59 0
68 53 0
54 -15 0
39 40 0
41 32 0
36 -22 0
48 28 0
35 -1 0
-68 -45 0
27 -13 0
-43 -27 0
17 -61 0
-69 -60 0
23 -24 0
2 51 0
-20 39 0
-40 -66 0
-67 14 0
39 -52 0
-11 -58 0
17 -37 0
1 64 0
57 69 0
12 38 0
