c PROBLEM_070_100_35  vars=70  clausulas=100  k=2
p cnf 70 100
-27 -25 0
6 4 0
-52 67 0
-42 48 0
38 -47 0
-57 -7 0
-66 15 0
-30 61 0
-69 44 0
66 -34 0
-21 -68 0
20 -65 0
-47 37 0
47 -13 0
68 66 0
39 6 0
-27 14 0
52 -25 0
18 -5 0
4 -41 0
-32 60 0
16 63 0
-28 17 0
-33 18 0
49 -18 0
-50 38 0
44 34 0
62 45 0
27 -28 0
-20 56 0
43 51 0
-22 -21 0
23 -14 0
-7 -60 0
-40 -46 0
-23 56 0
22 28 0
28 -24 0
41 -61 0
-50 -26 0
-35 -31 0
36 -57 0
62 57 0
-47 58 0
-46 -31 0
-11 59 0
50 11 0
54 -35 0
33 -1 0
36 27 0
-69 -64 0
2 -27 0
-28 45 0
36 8 0
-70 -53 0
3 -65 0
70 59 0
-64 -20 0
-18 -23 0
-53 -18 0
-15 -6 0
-32 -60 0
66 70 0
-23 39 0
29 18 0
-69 -25 0
37 39 0
20 -65 0
-19 16 0
11 52 0
-50 -32 0
61 -3 0
65 -17 0
-5 37 0
-24 44 0
18 -64 0
48 -32 0
-47 20 0
-59 -35 0
-55 14 0
-9 53 0
-64 56 0
42 13 0
39 -54 0
-54 -14 0
-21 -64 0
64 -27 0
-39 -26 0
23 58 0
36 43 0
-14 22 0
40 47 0
55 -15 0
25 -12 0
2 57 0
-5 30 0
37 -31 0
-46 -10 0
-43 -4 0
61 51 0
