c PROBLEM_070_100_47  vars=70  clausulas=100  k=2
p cnf 70 100
-48 32 0
-52 5 0
-37 -55 0
-65 59 0
60 68 0
15 6 0
52 -40 0
-41 -25 0
-22 54 0
45 -30 0
-5 53 0
25 -27 0
70 -6 0
-10 53 0
-38 -8 0
-23 11 0
63 11 0
1 12 0
-28 -4 0
42 -37 0
-39 -38 0
-46 13 0
-42 55 0
-16 -44 0
-28 22 0
2 -35 0
50 -68 0
40 -43 0
-35 12 0
19 10 0
-37 60 0
25 -36 0
61 20 0
17 -53 0
-14 54 0
55 -4 0
-47 63 0
-67 57 0
26 -23 0
-42 -70 0
-14 66 0
31 -7 0
22 -38 0
-22 -25 0
23 -18 0
-64 -63 0
-61 44 0
66 -4 0
9 32 0
69 9 0
-5 -48 0
-6 13 0
-53 34 0
2 8 0
-39 -16 0
-64 -56 0
64 17 0
24 -58 0
-59 -6 0
53 52 0
4 -46 0
10 3 0
35 -66 0
-63 45 0
-39 -34 0
-34 69 0
35 41 0
51 26 0
1 -21 0
-40 62 0
12 13 0
-54 -49 0
-30 18 0
-5 54 0
-60 33 0
30 31 0
6 -66 0
-25 -8 0
44 -61 0
-13 -32 0
12 6 0
42 -47 0
30 20 0
-64 66 0
35 -23 0
-1 50 0
21 52 0
-21 38 0
-64 -38 0
43 20 0
-17 23 0
-62 54 0
22 36 0
19 -59 0
64 -28 0
62 31 0
27 61 0
-48 19 0
-29 -38 0
-61 -57 0
