c PROBLEM_070_100_13  vars=70  clausulas=100  k=2
p cnf 70 100
3 -56 0
-10 -14 0
18 -1 0
47 39 0
60 26 0
-13 34 0
-9 35 0
-33 53 0
42 -32 0
20 -52 0
5 10 0
67 61 0
-52 -9 0
55 -58 0
-24 45 0
54 29 0
-34 53 0
43 59 0
-16 21 0
38 41 0
59 -43 0
1 -7 0
32 39 0
-6 33 0
48 7 0
53 -49 0
-28 -4 0
48 -13 0
52 -2 0
-22 -37 0
-1 -56 0
-41 2 0
-51 45 0
-23 -21 0
-11 -64 0
17 -46 0
58 21 0
-56 49 0
-8 42 0
69 27 0
16 -35 0
-36 23 0
30 5 0
-49 -53 0
64 59 0
9 -2 0
55 -21 0
2 -11 0
68 -21 0
66 -23 0
8 -28 0
-55 38 0
-56 42 0
6 -27 0
40 -42 0
53 25 0
-8 28 0
-58 10 0
27 -11 0
43 38 0
62 56 0
-15 -1 0
-52 -43 0
58 -17 0
50 -57 0
-29 -64 0
-20 25 0
-6 -33 0
63 -19 0
-35 57 0
-28 -37 0
55 27 0
42 -27 0
-40 -67 0
-19 69 0
-2 -25 0
-36 -12 0
44 -66 0
65 -26 0
55 23 0
31 8 0
-35 -51 0
8 53 0
-70 -44 0
-67 -60 0
39 -44 0
3 -5 0
-14 -19 0
41 -33 0
-12 -17 0
16 -31 0
27 55 0
-42 24 0
-67 40 0
-60 13 0
-20 61 0
19 -8 0
30 51 0
-15 -69 0
-32 -63 0
