c PROBLEM_070_100_02  vars=70  clausulas=100  k=2
p cnf 70 100
34 -41 0
-53 47 0
-19 -33 0
-16 -40 0
6 31 0
32 49 0
-48 57 0
36 69 0
68 -36 0
-53 -66 0
-22 56 0
-7 50 0
-3 64 0
-14 56 0
-59 -16 0
57 -7 0
36 31 0
-12 18 0
58 -12 0
-6 -41 0
20 -4 0
33 24 0
-28 11 0
-1 -66 0
44 -35 0
66 -23 0
-70 -66 0
-10 12 0
-36 -52 0
2 -10 0
-18 -6 0
65 -53 0
64 48 0
6 31 0
-45 22 0
-30 33 0
-57 -43 0
9 -45 0
5 20 0
58 24 0
-51 69 0
-10 34 0
13 1 0
-54 -3 0
-56 -59 0
-35 -32 0
23 -60 0
48 61 0
-39 27 0
37 64 0
21 -70 0
-62 9 0
30 -26 0
-64 -41 0
60 41 0
41 66 0
-53 58 0
29 -46 0
49 59 0
-32 -54 0
-45 8 0
21 -44 0
23 15 0
-43 67 0
30 -63 0
52 -63 0
8 23 0
-41 28 0
-47 68 0
53 18 0
16 -33 0
-26 -13 0
43 -2 0
2 29 0
44 -21 0
-39 -3 0
-48 46 0
-65 -48 0
55 17 0
17 -37 0
67 38 0
-51 -42 0
-51 3 0
22 51 0
69 40 0
9 -41 0
59 9 0
-26 21 0
35 -38 0
59 8 0
-53 -51 0
46 25 0
-6 19 0
67 -35 0
6 -42 0
-26 48 0
29 -60 0
32 -24 0
-50 49 0
-34 -11 0
