c PROBLEM_070_100_36  vars=70  clausulas=100  k=2
p cnf 70 100
-45 8 0
22 1 0
30 -55 0
63 -1 0
10 -50 0
21 29 0
-42 -30 0
9 -18 0
11 59 0
-26 -70 0
4 -11 0
1 -29 0
-13 -46 0
23 65 0
37 -19 0
43 59 0
-5 64 0
70 -56 0
15 -18 0
-16 -69 0
15 21 0
39 57 0
-28 -49 0
60 -67 0
-70 -15 0
34 -62 0
-69 49 0
62 -23 0
-63 15 0
30 26 0
-58 1 0
-14 19 0
-8 -62 0
23 21 0
-41 -45 0
51 -65 0
26 46 0
-32 46 0
22 12 0
-1 -43 0
27 13 0
-45 23 0
66 -28 0
-24 -17 0
-29 62 0
37 -3 0
51 -2 0
12 46 0
-55 -9 0
2 -35 0
-52 -55 0
49 -46 0
16 -53 0
-46 28 0
-50 -58 0
19 -64 0
-36 31 0
-65 14 0
24 52 0
30 32 0
19 21 0
-68 1 0
-64 33 0
26 -10 0
11 51 0
8 5 0
-6 -22 0
43 -65 0
23 27 0
61 8 0
36 65 0
-61 15 0
-39 44 0
-33 -51 0
-42 -48 0
-29 -55 0
30 19 0
54 38 0
42 44 0
51 -69 0
52 -8 0
-49 -21 0
-33 -47 0
-7 56 0
-31 -20 0
-37 7 0
-48 47 0
8 6 0
-27 26 0
-40 53 0
42 12 0
30 16 0
-5 -62 0
-10 -15 0
14 25 0
-19 -7 0
25 -64 0
48 -44 0
23 -44 0
34 -1 0
