c PROBLEM_070_100_21  vars=70  clausulas=100  k=2
p cnf 70 100
48 -42 0
17 -28 0
2 30 0
57 36 0
60 20 0
50 -16 0
-26 55 0
-21 25 0
-23 -63 0
-17 -43 0
65 -1 0
25 24 0
60 -28 0
-17 -4 0
52 49 0
60 -14 0
-20 -46 0
-37 -51 0
39 10 0
-1 56 0
-7 -5 0
30 -21 0
-64 56 0
13 -21 0
28 16 0
58 -66 0
-27 -54 0
68 18 0
44 25 0
53 -68 0
12 31 0
-69 -26 0
-40 -68 0
-31 22 0
28 18 0
-22 52 0
-65 -9 0
-60 -4 0
38 -10 0
-47 -4 0
-36 -52 0
-11 -42 0
-47 -26 0
42 38 0
63 9 0
60 -42 0
-2 63 0
-14 -47 0
-61 19 0
70 66 0
-42 14 0
4 -1 0
35 55 0
-62 -48 0
-3 -4 0
-16 41 0
-9 -28 0
-50 32 0
-42 19 0
-5 -6 0
-9 2 0
-68 15 0
-22 36 0
24 -54 0
-19 -6 0
62 64 0
15 -16 0
6 -50 0
49 -39 0
3 -21 0
-12 -48 0
-58 26 0
67 -49 0
-60 -68 0
57 13 0
69 -29 0
-48 -25 0
-38 40 0
-48 57 0
51 8 0
-37 -59 0
-39 -50 0
5 -66 0
-49 34 0
47 -59 0
-29 -44 0
53 -49 0
-42 35 0
23 -66 0
14 13 0
-67 -13 0
-20 63 0
45 -40 0
-59 -41 0
-31 55 0
-5 70 0
3 -40 0
35 -30 0
-33 50 0
55 31 0
