c PROBLEM_070_100_32  vars=70  clausulas=100  k=2
p cnf 70 100
-27 10 0
-46 62 0
-50 -16 0
18 61 0
54 68 0
8 56 0
-53 7 0
61 -3 0
-60 25 0
50 -65 0
-65 -9 0
-59 -36 0
-38 -69 0
-62 -66 0
-27 -38 0
35 4 0
-16 -49 0
2 -11 0
55 -36 0
28 34 0
-42 -53 0
-15 -7 0
40 -44 0
1 42 0
-50 54 0
11 -48 0
-45 32 0
-44 49 0
20 39 0
5 -25 0
-22 -44 0
53 -27 0
-41 -34 0
6 -11 0
-66 -23 0
-66 28 0
-70 -6 0
-29 -65 0
-18 55 0
1 47 0
51 4 0
-40 -66 0
-34 14 0
14 -52 0
35 -44 0
-6 -69 0
-18 -36 0
-53 12 0
31 -36 0
-14 31 0
63 -66 0
-54 26 0
-12 -70 0
33 -29 0
-17 -39 0
58 -67 0
-4 -24 0
10 -32 0
-43 -19 0
-23 13 0
42 -5 0
8 -62 0
-46 3 0
13 -58 0
48 -14 0
-37 -1 0
-28 -5 0
13 26 0
20 -39 0
-37 30 0
59 -24 0
-52 -24 0
-19 10 0
-49 30 0
-55 -30 0
-4 68 0
40 47 0
-62 56 0
60 15 0
-15 2 0
2 -52 0
-25 -61 0
45 21 0
51 33 0
19 54 0
46 6 0
-64 21 0
48 -4 0
22 49 0
40 -36 0
-20 4 0
-62 6 0
-54 -40 0
9 -56 0
-25 -64 0
-22 66 0
69 -17 0
32 57 0
14 -63 0
39 66 0
