c PROBLEM_070_100_04  vars=70  clausulas=100  k=2
p cnf 70 100
19 -48 0
-16 -37 0
6 17 0
-56 22 0
8 54 0
-28 -56 0
-8 65 0
-33 69 0
29 -7 0
-38 -62 0
-49 50 0
34 10 0
-47 -12 0
-27 59 0
-26 6 0
13 34 0
16 39 0
-23 -33 0
55 52 0
-28 31 0
-6 63 0
-11 -22 0
9 63 0
47 2 0
-51 -8 0
42 16 0
-9 55 0
12 51 0
60 -39 0
-45 33 0
-30 -2 0
-18 -65 0
36 -1 0
-51 64 0
-24 -36 0
56 -45 0
-35 70 0
-68 38 0
47 -36 0
5 25 0
62 -58 0
54 -35 0
-49 42 0
43 -7 0
48 44 0
-38 -4 0
-65 58 0
-62 -2 0
50 56 0
36 1 0
63 -41 0
-3 -21 0
64 66 0
12 -32 0
27 69 0
36 21 0
-31 -63 0
-63 -3 0
-41 47 0
-65 -39 0
69 67 0
70 -47 0
-66 -29 0
-37 -14 0
56 40 0
64 -38 0
-51 19 0
-22 53 0
64 -57 0
-19 46 0
4 55 0
45 -25 0
25 61 0
68 60 0
17 69 0
-46 24 0
-41 -31 0
60 -49 0
57 13 0
42 -67 0
60 -1 0
24 -70 0
-8 -56 0
-18 -15 0
66 -10 0
26 -38 0
-29 -39 0
20 2 0
-5 -26 0
-70 26 0
-1 23 0
-16 6 0
-66 -8 0
53 -11 0
4 28 0
-62 27 0
26 -24 0
2 17 0
-44 -16 0
42 31 0
