c PROBLEM_070_100_22  vars=70  clausulas=100  k=2
p cnf 70 100
53 8 0
37 47 0
-58 27 0
53 9 0
-28 18 0
22 -40 0
35 32 0
62 57 0
-18 -5 0
-39 4 0
2 35 0
-11 -51 0
-10 -28 0
-37 -59 0
-62 38 0
-34 -61 0
-31 32 0
1 -5 0
-65 45 0
50 -52 0
57 -4 0
-13 -4 0
40 68 0
69 -45 0
33 68 0
49 -66 0
70 -41 0
-19 -17 0
-5 56 0
7 -55 0
-15 -21 0
68 -60 0
40 35 0
-16 2 0
54 51 0
38 15 0
-64 56 0
-59 31 0
63 -13 0
-29 -31 0
-33 -65 0
-31 63 0
-46 28 0
37 -49 0
-3 53 0
-69 23 0
41 -48 0
-64 26 0
-29 -15 0
-46 26 0
-41 -56 0
-6 16 0
47 -33 0
70 -43 0
36 -52 0
-8 -60 0
63 69 0
-54 46 0
-33 67 0
-3 -68 0
-38 7 0
-4 57 0
-44 14 0
-58 30 0
-38 -12 0
-40 19 0
-22 47 0
43 27 0
42 -57 0
-11 63 0
-33 -15 0
-61 -18 0
64 -18 0
36 -32 0
6 -69 0
69 25 0
48 -46 0
-51 -49 0
23 15 0
-11 26 0
-57 45 0
-42 -51 0
-46 -43 0
-63 33 0
9 -41 0
-35 -44 0
-20 21 0
-27 -33 0
-51 8 0
58 25 0
-29 -12 0
-30 46 0
-8 50 0
-13 61 0
54 -1 0
-9 -47 0
-24 35 0
-3 34 0
-10 2 0
55 35 0
