c PROBLEM_070_100_44  vars=70  clausulas=100  k=2
p cnf 70 100
-2 4 0
34 43 0
46 44 0
-29 16 0
21 -3 0
-28 47 0
-52 29 0
-1 68 0
53 69 0
36 47 0
-12 -70 0
-9 49 0
37 51 0
-43 26 0
-5 68 0
42 -27 0
-13 66 0
-32 -25 0
65 -20 0
-63 55 0
-8 -39 0
57 36 0
62 24 0
-61 50 0
52 -11 0
-40 55 0
-41 32 0
-10 -30 0
-32 -48 0
53 -43 0
19 45 0
-1 -50 0
-34 -43 0
-54 23 0
-41 22 0
17 -58 0
70 50 0
-6 27 0
65 51 0
22 -20 0
15 -64 0
-64 25 0
-11 -68 0
8 49 0
-55 -8 0
-15 -6 0
-49 63 0
38 61 0
-1 -70 0
-52 60 0
57 -14 0
69 -67 0
-25 34 0
40 -67 0
-4 -9 0
26 -21 0
-51 4 0
20 69 0
70 63 0
-21 67 0
53 24 0
14 63 0
-35 -25 0
-66 62 0
37 -58 0
-43 68 0
-1 32 0
-23 61 0
-16 -2 0
-35 18 0
40 -13 0
22 -17 0
-62 -48 0
-56 54 0
52 -1 0
4 31 0
10 59 0
13 42 0
68 17 0
-45 65 0
45 42 0
-3 -10 0
8 3 0
58 -33 0
50 -7 0
48 -33 0
52 -51 0
58 -36 0
13 12 0
-2 45 0
-46 -58 0
13 -23 0
42 14 0
-63 24 0
7 -28 0
65 -60 0
23 -15 0
-27 -41 0
48 5 0
70 -44 0
