c PROBLEM_070_100_27  vars=70  clausulas=100  k=2
p cnf 70 100
-15 40 0
-13 18 0
57 -8 0
-53 -52 0
-43 51 0
69 -33 0
-33 6 0
-5 68 0
66 13 0
-64 -24 0
-63 -5 0
24 28 0
-20 24 0
-34 16 0
-12 -16 0
6 -66 0
67 -6 0
12 -31 0
-42 34 0
-54 5 0
-3 -12 0
-33 -10 0
-10 26 0
28 55 0
44 46 0
-9 48 0
13 27 0
70 20 0
50 6 0
-19 -69 0
32 13 0
19 16 0
54 -45 0
-12 -63 0
-42 16 0
-12 -42 0
47 31 0
-23 -43 0
-37 -56 0
-45 53 0
-70 -4 0
48 19 0
5 -6 0
-53 -47 0
-11 -50 0
-39 35 0
-8 41 0
54 18 0
2 -57 0
-3 45 0
-59 18 0
31 35 0
-2 63 0
9 29 0
26 -6 0
-14 -62 0
49 -61 0
40 -9 0
-33 36 0
68 62 0
7 25 0
25 -16 0
-48 -58 0
-14 12 0
-38 28 0
-1 -51 0
-38 -2 0
7 -67 0
49 -65 0
-21 43 0
17 -36 0
52 -36 0
65 41 0
-26 -23 0
34 -35 0
-16 18 0
15 -50 0
-46 -48 0
2 -3 0
-44 -21 0
-6 -53 0
-60 -17 0
10 52 0
32 33 0
-51 -67 0
-61 16 0
-63 8 0
66 -54 0
-28 -8 0
55 25 0
10 30 0
-23 37 0
56 -45 0
-22 67 0
67 -18 0
-26 15 0
38 -1 0
-49 -7 0
-41 -68 0
-51 -61 0
