c PROBLEM_070_100_31  vars=70  clausulas=100  k=2
p cnf 70 100
31 32 0
-40 60 0
-26 51 0
67 7 0
-59 70 0
46 -17 0
-68 35 0
10 -52 0
-21 54 0
5 -19 0
44 -40 0
-19 22 0
-34 39 0
47 13 0
-30 -53 0
41 -15 0
36 37 0
-40 30 0
45 -19 0
-60 -2 0
-43 -15 0
-41 16 0
-33 2 0
-45 -38 0
57 70 0
-62 -29 0
-11 -23 0
9 -59 0
-14 -3 0
18 -57 0
-52 41 0
61 -54 0
-64 -10 0
-2 -42 0
63 -46 0
45 -57 0
6 -52 0
42 2 0
-68 -12 0
66 14 0
30 -37 0
-28 58 0
-38 -2 0
8 -6 0
3 -12 0
-44 -61 0
50 44 0
-58 67 0
48 -15 0
65 -66 0
25 -15 0
-60 -44 0
-27 15 0
-18 16 0
31 1 0
25 17 0
59 -8 0
4 -13 0
35 48 0
-34 63 0
49 44 0
68 26 0
-10 -37 0
-10 6 0
31 18 0
25 -6 0
-69 -15 0
19 -12 0
-62 10 0
61 28 0
-1 -6 0
-20 -25 0
24 -68 0
-15 35 0
-3 60 0
19 36 0
-37 67 0
-37 22 0
-34 1 0
-69 -51 0
4 -16 0
-26 39 0
-49 -35 0
-38 -1 0
-52 59 0
-61 -63 0
25 -32 0
-52 43 0
57 -9 0
66 55 0
-52 33 0
38 65 0
-29 -48 0
-56 54 0
34 -59 0
48 12 0
11 -69 0
-40 -43 0
14 -59 0
-4 39 0
