c PROBLEM_070_100_37  vars=70  clausulas=100  k=2
p cnf 70 100
-29 1 0
-67 -70 0
21 -52 0
30 -69 0
-69 -53 0
52 33 0
-65 -16 0
-24 -59 0
5 65 0
54 -60 0
36 -8 0
-17 69 0
32 -19 0
-35 -19 0
-15 -66 0
68 -64 0
-69 -52 0
-18 -57 0
20 39 0
31 -68 0
-22 -70 0
67 43 0
-40 -44 0
-39 55 0
44 -20 0
24 -54 0
1 45 0
-3 63 0
-59 -4 0
50 -63 0
2 -15 0
47 -46 0
16 -54 0
40 -60 0
20 -6 0
-6 -43 0
15 -23 0
16 64 0
-48 -6 0
-5 57 0
26 -25 0
-31 -44 0
-61 35 0
61 17 0
45 -21 0
-38 -37 0
-37 -29 0
-36 35 0
6 -40 0
67 53 0
-31 69 0
-18 27 0
-54 9 0
4 -22 0
53 -47 0
-25 -49 0
37 -19 0
-5 -66 0
-4 -27 0
-18 1 0
-65 -31 0
-9 -17 0
14 26 0
70 -56 0
-35 -25 0
-57 -50 0
14 -45 0
10 -63 0
-31 43 0
68 7 0
51 -2 0
21 -45 0
-23 -34 0
-50 6 0
19 49 0
-40 -8 0
-33 48 0
-11 37 0
34 17 0
2 -48 0
-42 -56 0
-56 15 0
-42 -67 0
-38 41 0
9 12 0
-46 -23 0
-5 53 0
62 -17 0
-10 -13 0
51 20 0
-38 58 0
-59 -19 0
36 14 0
-34 -11 0
70 -46 0
-38 -13 0
-50 49 0
56 -28 0
-50 -42 0
45 -16 0
