c PROBLEM_035_070_18  vars=35  clausulas=70  k=2
p cnf 35 70
-32 30 0
20 26 0
-2 20 0
-14 -5 0
34 -13 0
24 6 0
5 -22 0
-15 27 0
33 -13 0
-17 -35 0
-6 -33 0
32 14 0
30 -35 0
-4 -9 0
1 4 0
15 23 0
12 -20 0
32 -12 0
1 -5 0
5 -12 0
-22 -33 0
-2 -15 0
-34 -33 0
25 -28 0
11 31 0
-32 -7 0
28 -1 0
2 -11 0
10 23 0
-23 17 0
8 29 0
23 -3 0
7 -20 0
-26 -6 0
14 -2 0
-16 -13 0
6 16 0
14 -20 0
10 6 0
-27 5 0
-22 12 0
23 -13 0
2 -18 0
-5 -8 0
7 -16 0
25 -24 0
19 23 0
-10 -19 0
-26 -11 0
-14 18 0
-31 30 0
32 -31 0
-18 -28 0
-30 -11 0
-24 13 0
29 15 0
-28 7 0
33 28 0
17 -18 0
28 -8 0
10 17 0
-18 8 0
-5 30 0
26 12 0
-23 -19 0
24 -33 0
21 -19 0
17 -8 0
23 3 0
8 -23 0
