c PROBLEM_035_070_40  vars=35  clausulas=70  k=2
p cnf 35 70
13 -30 0
-30 26 0
4 12 0
29 33 0
21 -9 0
9 10 0
13 -2 0
21 -5 0
-8 2 0
-9 -15 0
-17 -13 0
-27 22 0
29 -24 0
3 -1 0
6 11 0
31 -6 0
30 -11 0
-18 -34 0
35 -33 0
13 12 0
5 -27 0
25 21 0
16 7 0
-29 3 0
-29 2 0
3 -4 0
-23 3 0
-28 -23 0
25 18 0
3 34 0
22 8 0
-20 32 0
22 -28 0
-22 -17 0
-26 13 0
17 -4 0
-35 -3 0
9 -34 0
-14 -19 0
-33 25 0
10 7 0
-6 -35 0
-28 3 0
-6 16 0
-33 9 0
-5 -15 0
-35 24 0
-16 -23 0
30 15 0
-1 -14 0
31 -23 0
-17 24 0
11 -14 0
20 -31 0
29 32 0
-35 1 0
30 -5 0
-8 17 0
-17 11 0
20 -13 0
8 -27 0
19 -18 0
-19 -27 0
-31 15 0
-22 21 0
-30 26 0
-12 -27 0
-12 22 0
21 -6 0
13 34 0
