c PROBLEM_035_070_45  vars=35  clausulas=70  k=2
p cnf 35 70
-29 24 0
18 25 0
-20 -18 0
14 -1 0
-15 -26 0
-1 26 0
10 -15 0
7 -19 0
-2 -32 0
19 24 0
10 -1 0
21 -16 0
-17 -24 0
33 16 0
-14 -6 0
1 -7 0
-31 -11 0
-3 27 0
-9 32 0
-6 -32 0
34 -13 0
-27 -35 0
-9 4 0
30 -28 0
-11 -14 0
13 20 0
-23 22 0
-3 -26 0
-2 -18 0
-32 17 0
5 -12 0
14 -35 0
-19 26 0
22 21 0
-18 8 0
-4 -15 0
-9 -27 0
30 15 0
-23 31 0
12 -3 0
22 -6 0
-4 24 0
-35 -22 0
-35 -12 0
-26 -4 0
4 29 0
26 28 0
7 6 0
34 -18 0
25 -4 0
-18 16 0
-33 30 0
-7 -22 0
10 -32 0
-19 -2 0
30 11 0
-21 -4 0
-34 25 0
-7 -19 0
-33 12 0
19 -16 0
21 -27 0
3 -28 0
-9 20 0
24 29 0
33 24 0
11 26 0
32 -27 0
30 33 0
1 11 0
