c PROBLEM_035_070_37  vars=35  clausulas=70  k=2
p cnf 35 70
-18 7 0
-33 1 0
-25 -3 0
1 -35 0
-2 28 0
32 19 0
6 -10 0
-7 4 0
-19 25 0
-15 10 0
-18 11 0
-7 26 0
-11 -5 0
-31 12 0
34 -19 0
16 23 0
8 -35 0
28 20 0
20 -27 0
18 -24 0
1 -22 0
6 -25 0
18 15 0
29 -8 0
29 26 0
-22 16 0
-6 -2 0
-6 -15 0
33 -3 0
1 30 0
18 5 0
29 -26 0
18 14 0
4 19 0
9 -16 0
-20 -13 0
-28 -2 0
5 -8 0
-33 -19 0
-27 8 0
-33 -4 0
1 33 0
17 -2 0
-35 24 0
-27 24 0
-21 3 0
-8 30 0
6 -34 0
-16 -6 0
-14 35 0
-35 12 0
-18 -23 0
22 -13 0
-11 -26 0
31 22 0
33 30 0
-2 -10 0
-20 -32 0
28 32 0
31 -15 0
-22 8 0
-32 -28 0
-22 -32 0
35 -34 0
19 27 0
3 32 0
2 13 0
19 26 0
-2 -19 0
-6 -13 0
