c PROBLEM_035_070_46  vars=35  clausulas=70  k=2
p cnf 35 70
27 11 0
-12 -29 0
3 -1 0
15 -28 0
26 32 0
-2 21 0
-35 21 0
-29 25 0
33 -25 0
-35 18 0
28 16 0
25 -24 0
33 21 0
-4 -17 0
8 -19 0
31 -30 0
-26 -11 0
-13 18 0
-35 3 0
2 -23 0
31 -33 0
-8 18 0
14 -10 0
-5 31 0
23 -18 0
17 35 0
-33 -10 0
7 -18 0
-27 13 0
-18 -19 0
7 -10 0
19 -34 0
-14 32 0
-30 2 0
14 -19 0
-5 -12 0
15 -7 0
-30 -10 0
12 24 0
34 35 0
-4 -10 0
-31 5 0
23 -20 0
24 -19 0
14 21 0
-8 14 0
22 33 0
12 -7 0
5 19 0
35 16 0
25 13 0
-15 -33 0
7 31 0
21 32 0
15 -32 0
-30 -17 0
-1 8 0
-9 29 0
10 -9 0
-16 -23 0
-12 26 0
-6 -18 0
-22 3 0
17 -35 0
6 24 0
29 25 0
18 -7 0
-33 17 0
-16 35 0
24 -32 0
