c PROBLEM_035_070_10  vars=35  clausulas=70  k=2
p cnf 35 70
-34 -23 0
4 34 0
24 -8 0
29 32 0
21 -32 0
13 34 0
2 26 0
9 23 0
-12 17 0
35 -29 0
16 32 0
-24 16 0
8 -15 0
-35 -2 0
25 26 0
24 17 0
-7 24 0
2 -29 0
-4 25 0
-31 -13 0
-2 5 0
30 32 0
9 -15 0
-8 13 0
-31 11 0
15 4 0
-11 -31 0
-19 -28 0
24 -13 0
-7 11 0
31 19 0
7 2 0
29 26 0
-11 -19 0
30 20 0
7 -16 0
33 3 0
20 -28 0
12 -33 0
34 8 0
-25 -12 0
24 -17 0
-20 -22 0
10 12 0
1 6 0
-5 -30 0
-30 -31 0
-25 5 0
-18 5 0
-25 8 0
33 -8 0
-19 -13 0
35 -34 0
-24 -6 0
18 -5 0
19 9 0
22 -21 0
-30 -25 0
-32 -17 0
34 14 0
6 -19 0
32 4 0
27 2 0
-7 -25 0
-25 -22 0
-20 16 0
-34 -27 0
21 27 0
1 13 0
4 20 0
