c PROBLEM_035_070_12  vars=35  clausulas=70  k=2
p cnf 35 70
9 -34 0
-28 -11 0
-10 -21 0
35 -7 0
19 33 0
7 15 0
-19 17 0
24 33 0
-5 6 0
-5 -20 0
2 -32 0
-6 -5 0
-12 1 0
-16 -34 0
20 -17 0
11 20 0
1 13 0
-6 21 0
-19 -17 0
5 12 0
26 -16 0
11 -30 0
32 13 0
-20 -29 0
7 -28 0
16 25 0
12 1 0
18 7 0
-12 33 0
14 -16 0
-2 -22 0
8 -14 0
-28 -4 0
6 -15 0
-9 -20 0
14 3 0
-22 -21 0
-16 -29 0
-12 -1 0
13 -9 0
27 12 0
7 -2 0
-23 32 0
-9 -29 0
23 -21 0
35 3 0
-35 -20 0
8 7 0
-8 28 0
10 -19 0
19 29 0
-9 -11 0
5 29 0
35 -10 0
22 4 0
27 2 0
-5 -15 0
-11 17 0
-3 29 0
-12 -33 0
-24 31 0
-14 4 0
22 -13 0
-5 20 0
13 32 0
35 31 0
4 -21 0
17 2 0
-33 19 0
-28 -8 0
