c PROBLEM_035_070_31  vars=35  clausulas=70  k=2
p cnf 35 70
14 21 0
-29 34 0
21 -7 0
-4 -28 0
-30 -21 0
-23 10 0
-1 27 0
-20 12 0
-30 -20 0
6 -4 0
35 -5 0
32 -31 0
-23 -19 0
33 -35 0
8 18 0
-10 6 0
5 -10 0
26 -34 0
34 -29 0
26 28 0
5 -16 0
-7 9 0
16 -5 0
-13 22 0
32 -19 0
-32 -3 0
22 5 0
-15 -32 0
21 18 0
-15 -6 0
-22 -32 0
10 29 0
-8 -34 0
12 34 0
18 -21 0
-27 28 0
7 -33 0
-15 -8 0
-25 -9 0
11 26 0
3 -35 0
-11 -9 0
-6 31 0
-12 -24 0
5 7 0
-2 7 0
11 26 0
-18 -16 0
11 -22 0
-28 29 0
28 18 0
31 -32 0
-24 -21 0
17 31 0
-5 -10 0
35 8 0
11 -10 0
-21 -9 0
-8 -21 0
-8 -26 0
4 -8 0
-5 -1 0
8 3 0
-33 -3 0
-25 5 0
-34 29 0
25 -32 0
11 -32 0
-34 -22 0
-35 -13 0
