c PROBLEM_035_070_13  vars=35  clausulas=70  k=2
p cnf 35 70
12 35 0
31 3 0
31 -20 0
-3 8 0
-33 2 0
3 31 0
22 1 0
22 -10 0
28 31 0
-12 -14 0
-10 29 0
28 32 0
6 35 0
-31 -33 0
-1 -6 0
4 -16 0
-32 18 0
-16 -19 0
-13 30 0
-26 12 0
-19 13 0
-4 -5 0
-29 -26 0
-26 13 0
27 -24 0
31 -8 0
12 24 0
-32 34 0
-18 1 0
-12 35 0
26 4 0
-6 18 0
30 -13 0
-13 -35 0
-23 18 0
8 10 0
18 -26 0
6 -27 0
-17 12 0
-21 35 0
-12 -17 0
12 -14 0
21 -25 0
12 7 0
-3 15 0
20 -1 0
-22 2 0
3 -14 0
28 33 0
30 -25 0
-28 -30 0
-34 -5 0
7 -13 0
-31 -9 0
-26 -4 0
-30 -5 0
-26 -12 0
16 26 0
-17 11 0
-9 -30 0
29 -3 0
6 -15 0
1 -18 0
-2 29 0
-14 -16 0
4 12 0
-2 16 0
4 -20 0
22 24 0
17 13 0
