c PROBLEM_035_070_22  vars=35  clausulas=70  k=2
p cnf 35 70
-15 22 0
1 13 0
-14 27 0
-14 -33 0
-5 4 0
30 -6 0
18 -16 0
15 -6 0
-13 -14 0
34 2 0
-31 28 0
-20 -9 0
33 6 0
-27 16 0
33 -18 0
6 17 0
-31 10 0
-1 -7 0
14 -35 0
32 -31 0
15 23 0
-16 -25 0
29 26 0
32 -25 0
-3 -34 0
17 -14 0
27 -11 0
27 -18 0
4 35 0
-18 13 0
-31 18 0
-27 1 0
11 12 0
17 18 0
-1 22 0
-32 19 0
-13 -26 0
2 8 0
-24 3 0
4 -19 0
-22 -26 0
-24 -27 0
-30 -13 0
-35 -7 0
27 32 0
3 24 0
-30 -33 0
19 -25 0
-21 -20 0
29 -2 0
-17 -26 0
13 27 0
-32 -14 0
-8 -11 0
34 -10 0
-7 32 0
-35 -19 0
10 11 0
26 -2 0
13 19 0
5 13 0
27 -13 0
7 29 0
-32 -28 0
-4 -6 0
5 -6 0
25 23 0
23 14 0
27 6 0
-24 6 0
