c PROBLEM_035_070_34  vars=35  clausulas=70  k=2
p cnf 35 70
-24 18 0
-11 1 0
1 26 0
14 6 0
-11 28 0
15 -6 0
32 23 0
9 -10 0
-30 33 0
-15 29 0
-19 -5 0
23 -34 0
8 17 0
32 16 0
31 29 0
3 -19 0
17 -28 0
18 13 0
-12 -21 0
10 2 0
29 30 0
9 34 0
12 -28 0
29 -1 0
18 -9 0
-31 -3 0
-25 -17 0
25 -7 0
27 -25 0
25 31 0
-3 27 0
-2 11 0
-6 26 0
32 -13 0
-14 7 0
-11 28 0
19 27 0
9 -21 0
12 3 0
-28 -21 0
7 -22 0
-11 33 0
9 31 0
-24 -11 0
-13 -10 0
-16 -31 0
20 -23 0
-4 -8 0
-29 -1 0
-11 22 0
-17 32 0
18 9 0
24 -28 0
-19 -12 0
-26 -15 0
-12 5 0
23 33 0
21 -33 0
18 -11 0
4 -7 0
35 -32 0
22 14 0
-3 -12 0
28 8 0
31 7 0
28 -27 0
-19 32 0
-27 8 0
-20 -1 0
-21 30 0
