c PROBLEM_035_070_36  vars=35  clausulas=70  k=2
p cnf 35 70
16 -25 0
-27 -26 0
-35 -19 0
25 1 0
-4 13 0
-35 6 0
-35 -11 0
-23 -28 0
-25 -10 0
-9 -11 0
-28 -15 0
-15 10 0
21 -27 0
-6 -33 0
-14 -30 0
-9 21 0
-22 -12 0
5 32 0
17 -28 0
13 26 0
4 18 0
7 5 0
18 -2 0
22 21 0
17 -26 0
-19 -26 0
13 -25 0
9 -16 0
-34 -32 0
-25 -3 0
-7 22 0
-19 1 0
21 15 0
-24 22 0
-17 22 0
-28 -30 0
23 -24 0
-34 -33 0
2 14 0
29 25 0
-13 -17 0
-30 29 0
10 -2 0
-14 12 0
32 2 0
-31 -11 0
-17 -14 0
2 -12 0
-15 -16 0
-3 1 0
-8 20 0
-23 35 0
-7 16 0
2 -1 0
3 -13 0
-16 -17 0
-22 -32 0
31 2 0
-17 -33 0
-33 27 0
-18 -16 0
18 -15 0
-11 13 0
-29 12 0
11 -13 0
-9 -18 0
-1 15 0
11 34 0
-19 -5 0
-3 -2 0
