c PROBLEM_035_070_16  vars=35  clausulas=70  k=2
p cnf 35 70
-9 -16 0
19 10 0
31 -27 0
2 -24 0
1 -8 0
-31 -6 0
26 -11 0
-35 7 0
4 34 0
8 24 0
20 16 0
32 -17 0
-9 -20 0
18 -21 0
-33 32 0
29 25 0
21 5 0
-4 -1 0
35 19 0
15 -17 0
-7 19 0
-8 -26 0
-2 -21 0
-22 -24 0
-5 -21 0
-17 34 0
-13 14 0
28 3 0
-32 12 0
-32 -23 0
-19 -16 0
-20 6 0
19 -10 0
26 -14 0
-22 -30 0
15 -24 0
19 33 0
27 -35 0
-2 -11 0
7 26 0
-11 31 0
16 24 0
23 -13 0
18 -7 0
16 27 0
-21 -32 0
-6 -17 0
21 16 0
-33 25 0
19 8 0
-34 3 0
-12 19 0
25 23 0
-9 27 0
6 -5 0
14 18 0
4 -12 0
-31 -1 0
-31 -29 0
30 -7 0
-12 35 0
-15 -20 0
-8 -5 0
2 -23 0
13 24 0
-26 21 0
-33 -32 0
-21 -7 0
-35 -22 0
-15 -19 0
