c PROBLEM_035_070_26  vars=35  clausulas=70  k=2
p cnf 35 70
-3 10 0
-15 -9 0
5 -24 0
-13 28 0
22 -8 0
-4 14 0
27 20 0
5 8 0
29 34 0
20 23 0
20 26 0
-9 2 0
-19 25 0
26 8 0
-11 7 0
-23 -7 0
-20 -5 0
31 -32 0
24 9 0
-16 17 0
-15 22 0
-17 -5 0
35 17 0
-34 -31 0
8 -32 0
-8 9 0
3 22 0
4 20 0
1 8 0
-33 -12 0
12 30 0
34 9 0
7 19 0
22 -31 0
-33 -7 0
-21 27 0
-11 -29 0
-11 -23 0
6 -4 0
-12 -21 0
27 22 0
19 7 0
-10 -33 0
-31 20 0
-19 -34 0
14 -6 0
27 -29 0
-22 -5 0
-33 -10 0
8 17 0
17 -6 0
-10 21 0
-2 28 0
-6 30 0
-1 2 0
15 -22 0
26 -3 0
31 -20 0
-21 13 0
-4 18 0
33 24 0
1 -20 0
-6 28 0
13 4 0
9 -12 0
-18 22 0
6 14 0
-5 16 0
35 -26 0
27 15 0
