c PROBLEM_035_070_30  vars=35  clausulas=70  k=2
p cnf 35 70
31 -8 0
-9 10 0
12 -11 0
-9 7 0
-21 -31 0
-35 29 0
-27 -1 0
29 -8 0
-32 15 0
10 31 0
20 -5 0
-22 -32 0
25 -14 0
22 23 0
15 -8 0
29 30 0
-23 29 0
-8 33 0
-6 16 0
29 24 0
-19 -26 0
-23 -12 0
-6 -2 0
28 -29 0
-12 11 0
29 -15 0
-18 9 0
22 -2 0
-10 -5 0
11 -16 0
2 16 0
24 4 0
34 7 0
28 16 0
15 -7 0
33 -25 0
12 28 0
21 30 0
-20 10 0
10 -14 0
21 12 0
-6 1 0
-28 2 0
3 1 0
-2 6 0
30 18 0
-18 -33 0
-17 29 0
26 5 0
-23 -28 0
6 -25 0
35 -21 0
-34 3 0
15 14 0
22 4 0
33 -14 0
26 -13 0
-11 -2 0
-12 1 0
-2 -8 0
-29 21 0
8 11 0
-16 33 0
22 -24 0
-12 -19 0
-12 3 0
3 -8 0
2 18 0
25 -26 0
35 -24 0
