c PROBLEM_035_070_17  vars=35  clausulas=70  k=2
p cnf 35 70
-33 -15 0
8 -22 0
22 -23 0
27 -16 0
11 -12 0
29 10 0
7 -13 0
-26 -25 0
-28 -11 0
31 -7 0
25 -32 0
14 26 0
14 26 0
31 17 0
2 30 0
-27 -10 0
-35 28 0
-34 32 0
16 -30 0
9 31 0
26 30 0
-18 8 0
-28 2 0
32 -20 0
33 3 0
-19 20 0
-32 35 0
33 28 0
32 30 0
-3 -22 0
-26 22 0
23 -13 0
12 25 0
4 -15 0
31 -16 0
14 -31 0
14 -34 0
25 -17 0
-13 9 0
-27 -1 0
-14 2 0
-14 -5 0
26 -6 0
-23 -20 0
-22 6 0
-2 -28 0
21 35 0
-30 -16 0
-19 6 0
-4 23 0
19 27 0
28 -21 0
-13 -2 0
2 -25 0
-15 -14 0
8 -33 0
19 -35 0
-29 -15 0
1 6 0
-15 -16 0
-26 9 0
-5 14 0
-18 11 0
-5 -19 0
12 -32 0
4 -24 0
8 -24 0
22 -32 0
21 8 0
6 28 0
