c PROBLEM_035_070_42  vars=35  clausulas=70  k=2
p cnf 35 70
24 -3 0
-8 13 0
-18 -23 0
-35 -30 0
1 15 0
32 -21 0
-24 23 0
-1 20 0
2 -33 0
19 12 0
25 16 0
9 1 0
-8 -34 0
12 -28 0
-3 6 0
-16 27 0
34 -1 0
22 -6 0
4 22 0
-35 -14 0
-12 4 0
17 -30 0
-19 11 0
31 -10 0
17 -14 0
9 11 0
18 19 0
6 -18 0
24 22 0
6 25 0
-24 15 0
34 -2 0
6 10 0
24 18 0
32 26 0
-30 -11 0
1 7 0
-5 27 0
-27 1 0
-5 -29 0
9 20 0
-5 25 0
7 -1 0
-9 12 0
-21 15 0
-19 -14 0
-6 1 0
19 7 0
16 2 0
-28 1 0
2 -8 0
9 5 0
6 -31 0
-15 -18 0
26 -29 0
-30 12 0
6 -14 0
-3 32 0
30 27 0
-11 15 0
-18 -11 0
8 -10 0
-9 6 0
-5 -7 0
1 18 0
-4 -25 0
-20 6 0
-18 11 0
-2 -35 0
-6 12 0
