c PROBLEM_035_070_39  vars=35  clausulas=70  k=2
p cnf 35 70
-34 26 0
-13 11 0
6 -17 0
-4 -23 0
-14 -4 0
4 -34 0
-22 9 0
23 9 0
-12 -34 0
-5 24 0
33 -14 0
-6 -25 0
-1 5 0
-16 -4 0
25 35 0
1 14 0
22 19 0
29 -21 0
3 9 0
24 31 0
-20 -5 0
32 -27 0
-27 22 0
18 -23 0
-7 -1 0
-25 -4 0
-16 12 0
-16 34 0
-5 1 0
25 31 0
8 -31 0
-10 -13 0
17 13 0
2 6 0
25 20 0
-26 31 0
-5 -7 0
-8 -9 0
-9 -24 0
10 -30 0
28 32 0
6 7 0
-23 -20 0
9 -1 0
12 -29 0
4 -3 0
-28 27 0
-10 -18 0
30 -26 0
-20 22 0
14 18 0
15 33 0
-28 11 0
-26 22 0
-5 -7 0
-35 25 0
-31 4 0
15 8 0
8 -25 0
-30 26 0
-20 -4 0
-11 -6 0
8 -29 0
-17 -3 0
-6 26 0
19 17 0
10 -25 0
28 33 0
-12 31 0
4 25 0
