c PROBLEM_035_070_32  vars=35  clausulas=70  k=2
p cnf 35 70
29 -7 0
4 21 0
15 27 0
-5 18 0
-22 15 0
33 -10 0
-14 11 0
12 -10 0
-25 24 0
26 -16 0
19 -14 0
33 -18 0
20 3 0
20 -21 0
27 -20 0
-1 14 0
-21 35 0
-5 -20 0
17 -20 0
2 11 0
17 35 0
3 -31 0
-28 -4 0
26 19 0
7 8 0
7 -4 0
19 23 0
-30 25 0
-35 27 0
-23 -2 0
-2 -21 0
7 2 0
-23 -32 0
-7 32 0
18 -6 0
33 2 0
-27 -9 0
3 22 0
-35 11 0
-8 23 0
13 29 0
-35 23 0
-30 10 0
-7 25 0
-30 32 0
4 3 0
-10 31 0
12 -16 0
-15 -7 0
-29 -31 0
5 -7 0
-24 -4 0
8 15 0
32 4 0
-21 24 0
18 28 0
-34 -29 0
11 22 0
31 12 0
7 -13 0
-11 33 0
8 -14 0
6 -31 0
-2 -10 0
26 -31 0
12 32 0
-21 12 0
-21 -8 0
-1 -26 0
-4 9 0
