c PROBLEM_035_070_43  vars=35  clausulas=70  k=2
p cnf 35 70
-23 11 0
-21 -17 0
20 12 0
2 -20 0
20 31 0
-27 7 0
-17 -19 0
8 3 0
-30 -27 0
7 8 0
14 -23 0
22 -16 0
-22 33 0
-27 -1 0
-4 -15 0
6 -13 0
-29 8 0
-14 30 0
-26 -29 0
-27 -22 0
22 -32 0
4 6 0
10 15 0
28 29 0
-35 -32 0
-12 -20 0
21 -23 0
7 -19 0
3 -26 0
6 16 0
-21 33 0
-9 8 0
-7 19 0
-21 -11 0
-7 -26 0
1 19 0
-26 -13 0
28 5 0
-35 14 0
-35 -3 0
-24 -16 0
32 27 0
31 -17 0
-29 -25 0
-31 13 0
-29 -27 0
15 -28 0
-20 -9 0
-19 13 0
-15 2 0
-19 -33 0
30 -24 0
-32 35 0
-6 -28 0
8 -7 0
-32 13 0
-5 -8 0
-3 28 0
-30 14 0
-7 -2 0
-20 -9 0
15 -29 0
9 -14 0
18 -8 0
-22 -34 0
-11 34 0
-29 34 0
26 27 0
-12 -4 0
-10 5 0
