c PROBLEM_035_070_09  vars=35  clausulas=70  k=2
p cnf 35 70
34 18 0
29 -32 0
5 32 0
4 -18 0
-31 22 0
-9 35 0
3 35 0
26 28 0
13 -17 0
-23 -19 0
-9 -30 0
17 -13 0
-25 -20 0
35 12 0
16 11 0
-24 17 0
11 -1 0
5 14 0
-5 8 0
24 -27 0
-15 32 0
-16 5 0
8 -18 0
-26 -27 0
-6 34 0
-4 -16 0
-29 -11 0
10 -5 0
3 19 0
-3 2 0
14 27 0
1 -31 0
11 26 0
34 -32 0
6 -27 0
-14 2 0
21 35 0
10 33 0
-1 33 0
-11 -31 0
-26 -15 0
4 -9 0
-33 31 0
-7 -28 0
-28 -27 0
-4 8 0
2 -25 0
30 -22 0
-21 -28 0
-19 31 0
34 -35 0
-32 16 0
-4 18 0
-30 5 0
19 -17 0
-33 7 0
7 35 0
-8 10 0
-29 -30 0
23 7 0
15 -23 0
12 -2 0
-11 -24 0
-33 20 0
-18 24 0
-23 -18 0
-10 9 0
-25 20 0
-29 12 0
-26 -24 0
