c PROBLEM_035_070_19  vars=35  clausulas=70  k=2
p cnf 35 70
-10 -35 0
2 -16 0
31 -19 0
-7 1 0
-27 22 0
-19 -20 0
-4 9 0
23 -2 0
20 6 0
28 -10 0
-29 -17 0
24 -23 0
-21 13 0
30 29 0
16 -3 0
19 18 0
7 20 0
-7 23 0
-13 -11 0
-33 15 0
3 -35 0
28 -35 0
25 -22 0
16 11 0
20 33 0
-1 28 0
12 34 0
22 -13 0
18 22 0
5 -35 0
8 -6 0
-9 -29 0
5 -14 0
-15 21 0
-11 -15 0
15 8 0
-25 -12 0
-33 25 0
-17 11 0
9 16 0
30 -22 0
-12 -9 0
-11 22 0
-8 -2 0
-25 24 0
33 20 0
26 -27 0
13 -23 0
21 5 0
25 8 0
4 -10 0
23 26 0
-19 20 0
27 -14 0
29 35 0
20 31 0
7 -17 0
12 32 0
31 -7 0
33 -18 0
6 -17 0
28 20 0
14 -9 0
5 35 0
-6 -22 0
32 20 0
-13 26 0
15 9 0
-11 -23 0
-4 -11 0
