c PROBLEM_035_070_11  vars=35  clausulas=70  k=2
p cnf 35 70
-34 8 0
-23 19 0
-10 34 0
13 25 0
26 -18 0
18 -27 0
-4 12 0
4 7 0
-14 -18 0
16 -12 0
-32 -19 0
-18 1 0
-3 6 0
-7 16 0
-1 5 0
-4 -31 0
-34 21 0
-13 32 0
-21 -35 0
-10 -11 0
-22 -28 0
-24 -12 0
-27 -14 0
20 30 0
5 -20 0
24 21 0
-13 16 0
22 13 0
29 31 0
-22 -26 0
-23 -26 0
31 -24 0
1 -5 0
31 -15 0
-33 -3 0
2 29 0
13 -19 0
-4 32 0
-6 16 0
-32 -6 0
-11 35 0
-33 -23 0
25 29 0
-2 22 0
-16 17 0
-20 -16 0
-15 16 0
28 4 0
-15 -16 0
20 23 0
19 2 0
-23 -2 0
-2 31 0
10 25 0
3 24 0
1 12 0
5 -9 0
11 14 0
-31 35 0
18 -26 0
6 17 0
-26 25 0
5 14 0
-10 27 0
9 7 0
26 -11 0
28 23 0
22 -17 0
-33 -1 0
-15 -24 0
