c PROBLEM_035_070_25  vars=35  clausulas=70  k=2
p cnf 35 70
7 -32 0
-4 -20 0
-17 8 0
-31 -11 0
-24 35 0
-25 -4 0
15 35 0
-4 -30 0
-2 15 0
-24 -27 0
-23 3 0
9 -8 0
-8 21 0
-1 27 0
20 -1 0
18 -9 0
-9 -26 0
-19 25 0
3 -18 0
20 -14 0
23 -32 0
-14 17 0
-34 -26 0
22 7 0
3 -8 0
30 -21 0
33 -13 0
13 18 0
34 -14 0
33 18 0
29 -28 0
24 17 0
-5 22 0
3 12 0
-13 5 0
15 13 0
11 16 0
-21 24 0
22 -5 0
17 -21 0
27 -12 0
24 35 0
-33 -10 0
25 -27 0
-9 -28 0
28 -34 0
-8 7 0
31 -13 0
5 -19 0
20 -33 0
-23 33 0
27 -33 0
26 21 0
18 -25 0
-3 -13 0
-14 -32 0
2 19 0
1 -28 0
-7 8 0
-19 -12 0
31 29 0
6 -27 0
23 24 0
12 -18 0
-33 3 0
-4 15 0
-15 16 0
-19 -31 0
-7 6 0
-25 -14 0
