c PROBLEM_035_070_44  vars=35  clausulas=70  k=2
p cnf 35 70
-25 -3 0
24 7 0
10 -28 0
30 23 0
24 12 0
14 9 0
-14 25 0
-8 -14 0
10 -25 0
9 21 0
-3 16 0
27 -23 0
31 -1 0
6 -8 0
8 18 0
-35 28 0
19 -10 0
26 -12 0
-25 23 0
-9 35 0
33 16 0
15 -5 0
-35 8 0
4 -11 0
-35 -15 0
-23 31 0
27 6 0
-34 11 0
-34 8 0
35 15 0
24 2 0
-25 18 0
-32 29 0
-18 16 0
-28 -32 0
-21 -6 0
31 -17 0
-20 5 0
-30 28 0
-28 -3 0
35 -25 0
-14 2 0
26 -31 0
9 18 0
-32 25 0
-13 -11 0
-7 3 0
-5 11 0
-16 27 0
19 -26 0
15 -14 0
-12 33 0
-12 -21 0
30 -1 0
28 -32 0
-29 -35 0
-31 6 0
2 -32 0
30 7 0
-22 31 0
-13 31 0
29 -23 0
-11 -7 0
-10 13 0
-20 5 0
32 27 0
3 16 0
-32 28 0
9 -15 0
12 20 0
