c PROBLEM_035_070_50  vars=35  clausulas=70  k=2
p cnf 35 70
-11 -8 0
-28 16 0
3 8 0
9 -23 0
-29 -23 0
-34 23 0
-17 24 0
-25 24 0
22 -14 0
29 -27 0
-17 -1 0
28 -8 0
2 -28 0
-4 -31 0
16 14 0
34 -20 0
22 21 0
-14 -30 0
-12 21 0
26 -23 0
31 3 0
-33 -13 0
-13 7 0
4 28 0
-31 18 0
21 -32 0
-31 -16 0
13 -35 0
26 -32 0
29 -22 0
-31 -4 0
11 21 0
30 16 0
-15 -19 0
2 -6 0
-4 -16 0
16 3 0
-27 -3 0
-9 18 0
28 -29 0
16 -30 0
-23 4 0
-6 -1 0
15 27 0
-15 31 0
26 20 0
5 -33 0
-23 29 0
25 -22 0
-19 18 0
-11 22 0
-5 29 0
-17 -26 0
-5 -3 0
2 -13 0
-15 12 0
-5 -16 0
-31 12 0
27 -12 0
-20 -22 0
32 12 0
33 -23 0
-9 -10 0
10 34 0
-8 -13 0
-4 -21 0
5 35 0
-32 9 0
7 20 0
28 -4 0
