c PROBLEM_035_070_06  vars=35  clausulas=70  k=2
p cnf 35 70
17 -14 0
-34 29 0
24 -1 0
-30 -16 0
9 -6 0
-22 17 0
9 6 0
-16 -19 0
12 29 0
-3 -22 0
9 32 0
-24 35 0
-27 -11 0
-24 28 0
12 32 0
9 30 0
-9 2 0
-20 34 0
-15 -13 0
10 15 0
-2 -27 0
-34 30 0
-26 3 0
-29 -34 0
-5 2 0
-35 -33 0
35 31 0
21 -16 0
-8 -31 0
-31 8 0
-17 26 0
4 12 0
-8 12 0
-1 -20 0
-25 33 0
33 29 0
-24 -22 0
-34 -21 0
-8 -25 0
-7 -5 0
-6 1 0
2 -22 0
19 12 0
-9 -17 0
17 -27 0
5 8 0
-13 -15 0
7 35 0
-1 33 0
-18 -34 0
-28 30 0
-8 17 0
35 -4 0
-13 -7 0
-32 6 0
7 28 0
-23 -25 0
33 -11 0
-21 -29 0
-11 33 0
24 -12 0
6 17 0
-30 2 0
-19 -35 0
-22 4 0
-16 -20 0
-14 -3 0
-9 -27 0
28 -17 0
-31 32 0
