c PROBLEM_035_070_38  vars=35  clausulas=70  k=2
p cnf 35 70
2 -24 0
20 -24 0
5 -11 0
8 5 0
8 33 0
-4 -2 0
17 4 0
-3 -18 0
-3 34 0
-19 12 0
2 4 0
27 -2 0
13 21 0
-9 -6 0
-32 -2 0
34 29 0
19 28 0
20 -34 0
-25 -28 0
-12 -14 0
-1 -2 0
12 25 0
-33 22 0
7 -30 0
-21 -22 0
-18 10 0
30 -14 0
-10 18 0
-29 5 0
-29 -13 0
-11 -18 0
14 19 0
16 -11 0
-10 25 0
-6 28 0
31 -15 0
28 25 0
29 13 0
-17 -28 0
-23 -25 0
2 -26 0
18 -29 0
19 35 0
-33 -8 0
20 -8 0
7 -3 0
26 -6 0
-18 12 0
29 -27 0
18 -12 0
4 25 0
-1 17 0
-18 29 0
-25 -4 0
-24 27 0
-20 10 0
-15 -30 0
35 -5 0
-2 16 0
-18 -35 0
27 9 0
-18 -23 0
-28 22 0
22 -13 0
-6 -4 0
35 -17 0
-5 32 0
34 31 0
24 34 0
-26 -3 0
