c PROBLEM_035_070_29  vars=35  clausulas=70  k=2
p cnf 35 70
-35 -19 0
6 -14 0
-4 -10 0
22 -33 0
26 -9 0
17 23 0
-28 -17 0
29 6 0
-6 -29 0
-14 34 0
2 9 0
-7 -27 0
8 14 0
13 -23 0
9 23 0
4 -11 0
-26 -29 0
-14 -1 0
-10 25 0
5 -25 0
-35 -1 0
22 -28 0
34 20 0
23 1 0
27 -19 0
-27 -28 0
22 -2 0
-11 15 0
3 18 0
-23 -14 0
1 -21 0
-6 10 0
5 -9 0
-23 -11 0
-26 5 0
2 33 0
-17 -5 0
-21 30 0
-11 -7 0
-35 -4 0
-32 -10 0
-22 -16 0
-29 -14 0
19 32 0
13 -10 0
13 19 0
24 7 0
26 -7 0
27 -34 0
-19 35 0
-20 -24 0
20 18 0
16 10 0
-31 -12 0
-35 -15 0
-25 12 0
-8 27 0
11 -16 0
22 -16 0
9 -28 0
-8 -26 0
9 -23 0
12 20 0
-1 -31 0
1 -9 0
-25 -22 0
1 5 0
13 35 0
-3 13 0
-24 -35 0
