c PROBLEM_035_070_21  vars=35  clausulas=70  k=2
p cnf 35 70
-27 -2 0
20 4 0
13 -24 0
-11 -24 0
22 -26 0
34 -27 0
23 -14 0
-31 -29 0
-18 29 0
11 -5 0
-34 29 0
-33 13 0
14 20 0
-32 -16 0
25 -24 0
-7 -20 0
-25 -7 0
10 -7 0
-3 24 0
-21 -18 0
-15 26 0
18 32 0
4 31 0
-5 33 0
-30 -33 0
4 -33 0
25 7 0
8 6 0
22 -27 0
-8 33 0
-28 -12 0
-9 -26 0
-19 -15 0
-18 -25 0
-20 17 0
-27 -34 0
-34 9 0
23 -13 0
6 -10 0
-4 -21 0
-22 10 0
-33 8 0
-6 13 0
-32 3 0
-7 21 0
-26 -34 0
6 -4 0
-30 -14 0
32 -12 0
-4 -13 0
4 -23 0
-12 -3 0
-20 -21 0
19 -21 0
-32 16 0
30 -31 0
-15 11 0
-27 8 0
6 25 0
-34 -35 0
-26 23 0
4 -8 0
-25 -31 0
-5 -3 0
19 7 0
-18 35 0
-29 -7 0
-29 10 0
12 -1 0
-28 30 0
