c PROBLEM_035_070_28  vars=35  clausulas=70  k=2
p cnf 35 70
29 -18 0
1 -22 0
28 21 0
-31 -20 0
-11 18 0
-31 -35 0
-19 -30 0
-33 11 0
25 23 0
22 -4 0
9 -11 0
24 27 0
30 -13 0
-35 22 0
24 12 0
9 -10 0
23 6 0
32 23 0
-29 -28 0
14 4 0
-14 20 0
26 -14 0
-18 32 0
6 33 0
8 -1 0
34 32 0
-21 -16 0
33 20 0
8 -2 0
-12 26 0
33 -2 0
-28 -31 0
-9 -17 0
15 33 0
2 20 0
3 9 0
-10 -19 0
-30 -4 0
22 13 0
12 14 0
21 -16 0
29 -7 0
-22 -16 0
-6 5 0
23 15 0
-16 -28 0
-34 -3 0
-16 -6 0
-12 27 0
-2 9 0
-3 5 0
29 10 0
16 -21 0
6 -8 0
9 19 0
4 24 0
-13 24 0
6 -12 0
15 -13 0
-15 -31 0
-6 11 0
-31 -8 0
7 -2 0
2 -31 0
5 -3 0
-2 8 0
-1 -29 0
-14 -30 0
25 20 0
6 14 0
