c PROBLEM_035_070_07  vars=35  clausulas=70  k=2
p cnf 35 70
-32 -18 0
33 15 0
6 -9 0
2 26 0
-4 23 0
20 22 0
-33 6 0
-33 -32 0
7 29 0
25 -28 0
23 -13 0
-14 18 0
-13 -12 0
3 20 0
21 18 0
16 -13 0
-1 -30 0
-18 -34 0
8 13 0
35 17 0
-12 -18 0
31 21 0
-19 -10 0
31 12 0
-15 3 0
-4 25 0
21 -12 0
3 11 0
-15 19 0
-15 -30 0
13 -30 0
34 -5 0
26 21 0
-6 1 0
26 -12 0
-29 25 0
1 16 0
-18 32 0
-24 -1 0
-11 -24 0
28 -4 0
-20 -9 0
-24 3 0
-17 20 0
-34 31 0
33 -24 0
16 -4 0
18 -29 0
9 -30 0
-16 33 0
9 -22 0
12 29 0
30 10 0
21 22 0
18 4 0
-4 -20 0
-26 -8 0
-13 14 0
24 22 0
-21 -4 0
-9 5 0
31 23 0
16 -7 0
30 -1 0
-8 16 0
26 -2 0
-34 27 0
-17 8 0
17 31 0
-22 7 0
