c PROBLEM_035_070_04  vars=35  clausulas=70  k=2
p cnf 35 70
4 -6 0
-8 6 0
-10 22 0
-31 -10 0
-6 -2 0
33 -3 0
-26 -22 0
34 15 0
32 15 0
-11 16 0
19 -2 0
-1 6 0
24 -23 0
-12 22 0
-8 35 0
34 -4 0
-21 -8 0
-3 -26 0
-28 -21 0
-10 -28 0
11 15 0
35 -5 0
-12 34 0
28 -18 0
-7 -8 0
17 1 0
9 11 0
16 -31 0
3 -27 0
20 32 0
7 21 0
19 7 0
20 33 0
8 32 0
18 -19 0
14 -33 0
-10 24 0
-16 35 0
33 3 0
-9 -33 0
-18 9 0
23 25 0
-13 -4 0
-27 25 0
8 29 0
-20 -1 0
22 -28 0
-7 26 0
31 19 0
13 17 0
-28 2 0
-20 17 0
20 14 0
2 31 0
-30 -9 0
-24 -12 0
11 -32 0
-18 11 0
-5 -26 0
11 -12 0
11 -15 0
18 -8 0
-1 -25 0
-35 -11 0
8 3 0
-26 24 0
19 -7 0
26 -5 0
26 -6 0
-8 -16 0
