c PROBLEM_035_070_03  vars=35  clausulas=70  k=2
p cnf 35 70
7 -14 0
30 14 0
30 -23 0
28 -18 0
-10 1 0
-2 27 0
21 -25 0
-32 -16 0
4 -7 0
28 16 0
16 -17 0
-6 26 0
21 -35 0
-34 5 0
-31 -8 0
-11 -27 0
20 -21 0
1 16 0
4 33 0
9 3 0
-35 -8 0
-4 17 0
-24 -11 0
-29 10 0
-28 -9 0
-9 5 0
16 20 0
3 -35 0
10 23 0
16 22 0
22 -33 0
-23 14 0
-12 18 0
-35 -26 0
22 -33 0
-27 -15 0
19 13 0
-14 -11 0
25 -6 0
-32 -28 0
32 -6 0
9 19 0
22 -31 0
2 26 0
19 32 0
14 12 0
-30 -16 0
28 12 0
31 34 0
2 28 0
13 -30 0
7 -29 0
30 13 0
7 24 0
17 26 0
4 25 0
32 -21 0
19 -2 0
-34 -27 0
1 -16 0
15 20 0
23 -6 0
-26 32 0
20 19 0
13 -28 0
-27 -29 0
29 -27 0
-17 -2 0
-32 -22 0
-30 16 0
