c PROBLEM_035_070_02  vars=35  clausulas=70  k=2
p cnf 35 70
-14 1 0
-24 -22 0
-17 34 0
15 -21 0
35 34 0
2 6 0
1 33 0
-32 3 0
-10 -22 0
34 14 0
-35 1 0
3 29 0
-26 -32 0
-15 22 0
24 -6 0
21 20 0
2 33 0
32 6 0
16 22 0
29 13 0
25 -10 0
13 -14 0
14 -33 0
28 12 0
27 16 0
7 -16 0
32 -34 0
-7 -23 0
-3 12 0
33 -18 0
15 31 0
-27 -31 0
-13 8 0
-8 32 0
-22 5 0
-34 -12 0
5 24 0
15 7 0
5 11 0
18 26 0
25 -3 0
30 35 0
-18 -13 0
-17 28 0
-20 -25 0
9 1 0
-14 6 0
-16 5 0
-20 34 0
1 6 0
16 -2 0
18 20 0
31 -26 0
-5 -17 0
-28 -7 0
4 -17 0
-10 34 0
-25 -18 0
-19 27 0
-22 15 0
-30 -11 0
4 20 0
2 -9 0
16 -14 0
-33 6 0
-23 17 0
-20 -30 0
-13 16 0
-4 -14 0
-17 28 0
