c PROBLEM_035_070_05  vars=35  clausulas=70  k=2
p cnf 35 70
-18 26 0
-1 -2 0
25 -33 0
31 -34 0
-17 -8 0
-9 -21 0
6 32 0
-21 -1 0
16 -23 0
32 3 0
35 25 0
-22 19 0
-10 16 0
-2 12 0
34 -19 0
20 27 0
6 30 0
30 26 0
-4 32 0
-33 5 0
17 1 0
26 22 0
-31 -12 0
16 18 0
19 28 0
-13 25 0
-11 -18 0
-5 -33 0
11 -1 0
7 13 0
-30 8 0
14 -25 0
-22 6 0
-33 -28 0
2 -30 0
-26 -2 0
-28 -7 0
6 17 0
-35 -4 0
-35 -26 0
17 24 0
-15 8 0
19 -17 0
20 9 0
-23 -19 0
-9 24 0
-13 -22 0
-18 23 0
-28 -3 0
13 15 0
-4 -27 0
1 9 0
27 -10 0
-19 33 0
-26 29 0
-2 -7 0
-15 25 0
-32 18 0
-29 1 0
-13 -22 0
12 23 0
27 15 0
12 -21 0
9 -3 0
-23 13 0
24 15 0
-23 -35 0
-24 -16 0
26 -32 0
7 34 0
