c PROBLEM_025_070_26  vars=25  clausulas=70  k=2
p cnf 25 70
-3 -5 0
10 -16 0
-17 10 0
-25 8 0
-12 -15 0
-1 -17 0
-7 23 0
9 -23 0
-23 5 0
19 -23 0
-8 -17 0
7 19 0
-2 6 0
-19 12 0
22 10 0
-13 -15 0
9 -6 0
-4 13 0
5 -10 0
-8 -16 0
-3 -22 0
-14 17 0
25 14 0
6 -23 0
11 -14 0
18 3 0
1 23 0
3 -25 0
-12 22 0
4 -16 0
16 14 0
-5 -9 0
-14 8 0
8 -4 0
-15 17 0
22 -23 0
-18 7 0
4 -16 0
5 12 0
5 1 0
9 14 0
24 -13 0
12 8 0
13 17 0
-9 7 0
21 -10 0
-6 -9 0
19 5 0
-24 -13 0
-7 -10 0
2 -10 0
15 -1 0
-10 -6 0
-20 21 0
-3 -17 0
22 24 0
18 21 0
-3 24 0
25 10 0
-12 -13 0
10 20 0
8 -24 0
-14 16 0
-13 19 0
-15 19 0
8 1 0
-2 24 0
-5 23 0
-23 5 0
-19 -8 0
