c PROBLEM_025_070_10  vars=25  clausulas=70  k=2
p cnf 25 70
-15 9 0
12 -23 0
-17 21 0
17 16 0
5 3 0
11 -2 0
-14 9 0
14 9 0
17 14 0
2 -15 0
-18 21 0
-1 -8 0
-13 10 0
14 15 0
7 -8 0
-18 -9 0
10 -8 0
-3 11 0
11 5 0
15 7 0
-24 -15 0
-22 4 0
-13 25 0
-18 5 0
-22 -3 0
24 21 0
-17 -18 0
3 16 0
21 9 0
-1 20 0
-20 11 0
16 -12 0
6 13 0
14 15 0
1 -13 0
-25 20 0
24 -25 0
16 -9 0
-5 -25 0
7 9 0
2 12 0
19 -11 0
-18 -3 0
20 -9 0
-19 3 0
-12 22 0
3 -20 0
19 -7 0
6 -22 0
-2 20 0
1 19 0
-4 14 0
-10 -12 0
10 -9 0
-13 23 0
-16 -8 0
-11 -12 0
-16 -10 0
25 -15 0
-15 -20 0
-19 -22 0
-21 -24 0
-8 17 0
18 14 0
12 -23 0
13 -21 0
22 9 0
7 4 0
-17 -19 0
16 8 0
