c PROBLEM_025_070_39  vars=25  clausulas=70  k=2
p cnf 25 70
12 -25 0
-3 -14 0
-21 -3 0
4 2 0
-9 -24 0
-20 -21 0
6 -23 0
22 -19 0
-1 -9 0
-11 -25 0
-22 5 0
-13 7 0
2 -5 0
18 7 0
-21 10 0
7 -23 0
7 6 0
-21 -3 0
-10 5 0
16 4 0
22 6 0
9 1 0
10 17 0
-12 -3 0
2 -15 0
-15 -8 0
21 -16 0
-14 -4 0
5 -16 0
4 -15 0
1 6 0
-6 14 0
-20 24 0
22 -23 0
14 22 0
18 17 0
-12 22 0
16 -19 0
-18 11 0
-17 -23 0
18 -13 0
-1 21 0
-23 -2 0
23 15 0
-5 11 0
22 19 0
11 -22 0
-12 20 0
-11 -24 0
-19 8 0
-15 1 0
-4 -18 0
-15 2 0
-15 10 0
-21 -25 0
19 -4 0
-17 19 0
-3 -10 0
10 -4 0
-9 -11 0
18 15 0
19 11 0
1 -6 0
3 -13 0
6 -7 0
-20 17 0
-2 11 0
-2 17 0
15 13 0
25 11 0
