c PROBLEM_025_070_06  vars=25  clausulas=70  k=2
p cnf 25 70
-22 -20 0
-4 -11 0
-3 21 0
-9 -1 0
-5 -17 0
24 -15 0
11 4 0
14 18 0
-8 24 0
-21 -3 0
-5 8 0
-17 16 0
-10 -9 0
18 8 0
15 -22 0
-9 2 0
19 16 0
2 -11 0
-14 -16 0
-7 6 0
10 13 0
21 -11 0
-10 8 0
-11 -12 0
-20 -4 0
23 -1 0
-18 4 0
-12 8 0
-9 -25 0
7 -10 0
5 -12 0
4 22 0
17 13 0
-13 2 0
-24 -25 0
12 8 0
13 20 0
-1 -6 0
-21 -24 0
6 -15 0
-3 -16 0
-5 7 0
17 -15 0
23 -8 0
-2 5 0
-7 22 0
4 -20 0
12 8 0
17 3 0
-25 -21 0
19 -13 0
22 20 0
-15 7 0
16 -11 0
-2 -17 0
24 9 0
2 -19 0
6 -21 0
-20 -23 0
-7 -11 0
6 -16 0
-16 -19 0
-20 18 0
18 -9 0
25 -1 0
2 18 0
-14 8 0
8 -4 0
13 -11 0
-22 25 0
