c PROBLEM_025_070_18  vars=25  clausulas=70  k=2
p cnf 25 70
3 24 0
-9 17 0
14 -17 0
7 -14 0
13 7 0
17 -15 0
-17 20 0
17 -15 0
13 -12 0
3 12 0
4 -19 0
-24 -5 0
-24 16 0
22 -7 0
-10 -1 0
-4 -16 0
5 19 0
-17 22 0
-21 4 0
9 18 0
-25 7 0
1 -4 0
-2 13 0
-24 -1 0
21 -23 0
16 20 0
3 18 0
17 -3 0
-15 -13 0
20 -23 0
-5 8 0
-12 -15 0
-13 14 0
24 -8 0
-3 20 0
16 12 0
12 25 0
-9 24 0
14 11 0
15 19 0
-2 -6 0
-7 -20 0
11 -2 0
-8 -16 0
-6 2 0
11 2 0
19 -16 0
4 3 0
-13 7 0
-17 -1 0
4 7 0
21 -17 0
6 -2 0
-24 10 0
19 -11 0
16 12 0
12 -17 0
-7 16 0
-21 -4 0
-12 24 0
18 -10 0
17 -4 0
1 25 0
-9 11 0
14 -4 0
18 -2 0
8 -23 0
3 -14 0
8 -9 0
-24 -2 0
