c PROBLEM_025_070_12  vars=25  clausulas=70  k=2
p cnf 25 70
-2 -6 0
-19 -11 0
8 -7 0
-14 -2 0
20 23 0
-13 -4 0
-1 22 0
11 -19 0
25 15 0
-2 22 0
15 -2 0
8 14 0
-7 15 0
-3 12 0
-2 -5 0
8 24 0
-7 12 0
11 -24 0
-12 -5 0
6 16 0
25 -11 0
-12 15 0
24 3 0
-16 4 0
-21 -15 0
-7 -2 0
-16 -19 0
-7 14 0
-8 -18 0
17 -3 0
-9 23 0
16 12 0
-13 -11 0
-18 10 0
-1 -11 0
9 -6 0
-18 1 0
-4 6 0
1 10 0
-3 14 0
-21 -15 0
-7 5 0
-21 12 0
-7 13 0
8 3 0
-20 8 0
25 -1 0
-17 -3 0
1 11 0
-6 21 0
8 17 0
4 -17 0
19 -21 0
-8 15 0
-8 -9 0
-16 -3 0
21 3 0
-10 -13 0
-20 -15 0
1 -24 0
-25 -23 0
-14 -19 0
-17 -22 0
-19 -11 0
22 -6 0
-21 13 0
11 -6 0
11 -18 0
6 24 0
14 5 0
