c PROBLEM_025_070_02  vars=25  clausulas=70  k=2
p cnf 25 70
-1 21 0
-19 -4 0
6 2 0
19 -23 0
22 20 0
12 -16 0
13 -14 0
-10 21 0
-13 -12 0
8 -7 0
18 15 0
-23 -22 0
12 -10 0
12 -18 0
7 -18 0
-19 18 0
10 21 0
23 24 0
14 -12 0
-24 11 0
-3 -13 0
15 23 0
-21 6 0
-7 23 0
-21 7 0
5 3 0
12 -17 0
-16 7 0
24 14 0
-1 25 0
14 11 0
-1 22 0
25 4 0
14 16 0
11 3 0
-8 6 0
-14 25 0
6 -9 0
-15 -13 0
7 22 0
23 -19 0
18 -19 0
4 -5 0
-6 -24 0
15 -14 0
-20 10 0
1 -22 0
-13 17 0
-21 4 0
-13 -11 0
-3 -2 0
-18 24 0
18 -4 0
6 -22 0
-7 -18 0
1 9 0
-15 5 0
9 -3 0
9 -17 0
25 -5 0
-2 -8 0
-25 10 0
-20 22 0
-13 11 0
1 -4 0
15 13 0
22 14 0
-1 25 0
18 3 0
-7 22 0
