c PROBLEM_025_070_40  vars=25  clausulas=70  k=2
p cnf 25 70
-21 24 0
24 21 0
5 -20 0
21 -23 0
10 23 0
-18 -20 0
25 5 0
11 -23 0
7 -15 0
-1 -22 0
4 14 0
-22 25 0
-17 5 0
10 -3 0
-3 2 0
14 -16 0
-6 5 0
8 -16 0
6 12 0
-14 16 0
2 -10 0
-3 -17 0
-19 11 0
19 17 0
-11 -9 0
-15 5 0
6 -18 0
-6 -18 0
-2 -3 0
21 18 0
-16 5 0
-14 7 0
-8 9 0
-1 -14 0
17 23 0
-19 -6 0
9 -24 0
1 12 0
-25 -6 0
-12 -9 0
-7 -8 0
3 -19 0
23 -20 0
-9 -15 0
17 -4 0
-9 -7 0
-24 22 0
20 25 0
-6 -16 0
18 -16 0
8 -1 0
6 -5 0
5 -6 0
-6 7 0
25 -4 0
20 -1 0
13 10 0
-12 24 0
-10 -21 0
-11 16 0
-20 -19 0
10 9 0
4 -2 0
8 9 0
-8 -14 0
24 -7 0
-19 21 0
-2 7 0
-6 -25 0
-5 24 0
