c PROBLEM_025_070_20  vars=25  clausulas=70  k=2
p cnf 25 70
21 -17 0
-20 16 0
14 -18 0
16 14 0
21 -18 0
-14 2 0
18 3 0
22 9 0
23 24 0
-25 22 0
16 -7 0
24 18 0
-19 4 0
-24 -3 0
-21 16 0
-2 19 0
-13 21 0
-9 17 0
5 22 0
-24 -8 0
-22 2 0
3 -20 0
2 22 0
6 -23 0
21 -25 0
18 -8 0
-11 10 0
11 7 0
-11 -8 0
4 15 0
10 -12 0
12 25 0
23 -11 0
1 23 0
-17 11 0
13 17 0
11 7 0
24 12 0
-8 3 0
-15 25 0
17 4 0
16 18 0
-20 -2 0
14 -10 0
-2 14 0
-9 -22 0
25 -22 0
-21 11 0
-19 8 0
-16 -19 0
-6 -8 0
20 -7 0
24 -5 0
-9 -5 0
-13 -15 0
1 -25 0
-22 15 0
7 -6 0
18 -24 0
2 10 0
-17 6 0
1 -20 0
-18 -23 0
1 25 0
9 20 0
-8 21 0
3 4 0
-3 23 0
15 16 0
-24 -1 0
