c PROBLEM_025_070_46  vars=25  clausulas=70  k=2
p cnf 25 70
-8 -19 0
-12 -16 0
-4 -25 0
-7 -8 0
-17 2 0
-12 -18 0
25 -16 0
6 -18 0
-20 7 0
15 -22 0
-9 -18 0
-21 -7 0
11 -16 0
-1 19 0
-14 -19 0
-19 -14 0
-5 -13 0
1 23 0
-8 3 0
-16 -23 0
-25 17 0
-9 -11 0
-6 14 0
7 -20 0
-12 -17 0
-20 -6 0
4 22 0
-3 -15 0
6 -20 0
-12 17 0
25 21 0
-14 25 0
12 25 0
20 -16 0
-24 -17 0
-9 20 0
-25 13 0
-6 11 0
-6 -8 0
2 -4 0
12 -4 0
-10 -2 0
12 -9 0
9 -3 0
2 14 0
-20 6 0
13 25 0
-6 25 0
-2 7 0
19 -5 0
12 -18 0
-2 3 0
-1 18 0
21 -15 0
-5 15 0
1 21 0
-4 -14 0
-23 -13 0
23 -20 0
17 8 0
-19 -6 0
22 -24 0
11 -18 0
5 17 0
2 5 0
-9 -22 0
-9 10 0
-11 23 0
14 24 0
-22 -16 0
