c PROBLEM_025_070_08  vars=25  clausulas=70  k=2
p cnf 25 70
5 -18 0
23 -5 0
24 -5 0
20 23 0
-10 -20 0
15 -3 0
-6 -11 0
-7 16 0
-6 -23 0
-19 -5 0
-2 21 0
12 -15 0
22 23 0
-24 25 0
5 -17 0
4 -18 0
11 -17 0
20 2 0
-1 12 0
-12 23 0
-15 19 0
-6 -19 0
10 4 0
17 13 0
10 15 0
12 18 0
-14 24 0
-16 -6 0
3 -7 0
23 19 0
12 -14 0
24 5 0
8 17 0
-7 -6 0
-2 -15 0
-3 10 0
24 -10 0
24 -19 0
7 -3 0
-16 -4 0
15 12 0
13 -22 0
-20 6 0
21 -11 0
15 12 0
9 25 0
-17 22 0
2 10 0
-14 -24 0
-19 17 0
1 16 0
-5 -16 0
18 -25 0
11 13 0
7 18 0
-9 25 0
-3 4 0
-7 19 0
-20 9 0
-11 -5 0
-1 -18 0
-16 -21 0
-15 -20 0
-18 12 0
-22 -8 0
2 17 0
-11 -18 0
15 22 0
-11 19 0
20 1 0
