c PROBLEM_025_070_15  vars=25  clausulas=70  k=2
p cnf 25 70
12 -9 0
13 -20 0
8 5 0
22 -20 0
13 14 0
15 -11 0
-5 11 0
12 -18 0
9 -7 0
-5 1 0
12 2 0
-4 -19 0
-3 -16 0
9 5 0
17 19 0
17 -10 0
-24 -25 0
22 -14 0
-13 -23 0
-5 23 0
-5 -10 0
3 21 0
17 -21 0
9 23 0
-6 -16 0
-12 -22 0
16 14 0
6 -12 0
-11 10 0
-21 -14 0
6 18 0
-5 -10 0
20 18 0
-7 12 0
-3 -12 0
-21 10 0
24 -15 0
-24 -18 0
15 -24 0
-1 -21 0
-1 11 0
-10 -23 0
-2 -24 0
14 -8 0
-6 -20 0
17 -11 0
7 -14 0
5 -21 0
-23 -19 0
-11 15 0
7 21 0
-3 -7 0
-10 -23 0
-3 -18 0
25 12 0
6 16 0
-9 -21 0
-18 5 0
-12 25 0
-19 -14 0
-4 20 0
19 6 0
3 23 0
7 6 0
22 9 0
-9 -2 0
-13 -17 0
1 15 0
-12 -18 0
20 15 0
