c PROBLEM_025_070_35  vars=25  clausulas=70  k=2
p cnf 25 70
-3 6 0
-21 14 0
-14 -20 0
20 -14 0
18 -2 0
-24 25 0
-1 9 0
-25 -5 0
-24 17 0
2 4 0
22 -16 0
-5 -14 0
21 11 0
-22 18 0
-18 15 0
-16 -5 0
4 -20 0
-12 21 0
2 16 0
7 1 0
8 16 0
18 17 0
14 -10 0
25 18 0
17 13 0
-10 -19 0
-21 11 0
1 -4 0
-15 4 0
-8 -5 0
4 -13 0
5 -10 0
-12 10 0
-10 7 0
6 4 0
-22 9 0
-8 11 0
24 16 0
-8 22 0
-6 -17 0
10 -5 0
-10 17 0
-17 -4 0
-2 21 0
7 25 0
-25 20 0
20 -17 0
-24 5 0
-11 -2 0
4 -1 0
24 25 0
-20 3 0
3 -9 0
-5 -6 0
12 4 0
-10 -8 0
2 19 0
4 12 0
24 12 0
13 -19 0
22 -18 0
3 -20 0
6 -14 0
-10 20 0
-19 -23 0
-4 8 0
-21 -14 0
-16 -11 0
-4 -22 0
-15 23 0
