c PROBLEM_025_070_17  vars=25  clausulas=70  k=2
p cnf 25 70
3 20 0
16 14 0
-11 15 0
23 14 0
-13 -22 0
-4 -7 0
22 -7 0
-12 -2 0
-15 -11 0
-4 9 0
-10 -3 0
-15 1 0
2 6 0
20 13 0
-5 -15 0
-7 -11 0
-16 6 0
14 19 0
17 16 0
15 -17 0
13 21 0
10 -14 0
-4 -8 0
-5 6 0
1 -2 0
-10 -16 0
17 -6 0
-14 9 0
-2 20 0
8 6 0
-8 -9 0
-14 4 0
23 4 0
2 5 0
-24 17 0
-25 -18 0
25 -24 0
-14 -4 0
-12 -2 0
-21 5 0
1 21 0
2 -16 0
-24 -12 0
13 -4 0
19 3 0
-22 16 0
18 8 0
19 6 0
-15 3 0
1 -16 0
-5 9 0
-9 24 0
2 -18 0
4 22 0
-19 -12 0
-4 3 0
-1 -19 0
-18 -20 0
-18 -10 0
-21 3 0
-18 -9 0
-8 -16 0
8 -25 0
-12 -23 0
2 1 0
7 18 0
-24 1 0
-3 10 0
-1 -17 0
-19 17 0
