c PROBLEM_025_070_11  vars=25  clausulas=70  k=2
p cnf 25 70
-15 9 0
7 -2 0
-3 -4 0
12 19 0
20 -7 0
7 17 0
2 -15 0
23 24 0
-6 12 0
-24 18 0
-3 -12 0
-1 -7 0
5 -7 0
14 10 0
6 10 0
-14 -15 0
-16 11 0
11 9 0
-25 16 0
-8 -20 0
6 13 0
18 6 0
2 16 0
-11 -12 0
-8 -5 0
-14 -15 0
24 8 0
19 14 0
-4 8 0
22 4 0
-16 -24 0
13 1 0
21 -6 0
22 17 0
23 -18 0
17 -10 0
-2 11 0
11 6 0
-23 -3 0
3 -20 0
-9 1 0
4 -19 0
21 7 0
-6 24 0
-19 4 0
-25 24 0
6 -1 0
17 -11 0
-21 -1 0
11 23 0
-12 11 0
-19 -15 0
-18 -10 0
-20 11 0
-25 -14 0
4 24 0
13 -25 0
13 -8 0
-21 -8 0
19 -6 0
23 5 0
18 -25 0
-2 -6 0
20 -1 0
7 -12 0
15 9 0
-18 25 0
18 14 0
14 22 0
23 15 0
