c PROBLEM_025_070_34  vars=25  clausulas=70  k=2
p cnf 25 70
-23 -4 0
-2 21 0
1 -25 0
8 -18 0
17 -12 0
20 -22 0
-20 11 0
-22 -10 0
14 -24 0
6 -2 0
-7 -19 0
-7 -3 0
-6 24 0
6 15 0
-5 -15 0
7 -23 0
19 25 0
-19 -12 0
6 15 0
-5 6 0
17 16 0
-13 11 0
19 -12 0
-17 -9 0
13 1 0
-12 20 0
9 -21 0
12 -18 0
10 17 0
-2 -17 0
-4 -22 0
4 13 0
-21 6 0
-14 -3 0
-3 20 0
-19 7 0
17 14 0
12 -16 0
22 15 0
-7 10 0
10 6 0
-22 24 0
22 19 0
10 -21 0
4 16 0
-9 -1 0
-12 -4 0
7 5 0
-25 21 0
17 18 0
17 12 0
-3 5 0
-12 -21 0
4 11 0
-13 -15 0
23 -25 0
6 4 0
-24 22 0
-22 6 0
16 -15 0
-13 -6 0
-13 17 0
4 -18 0
-21 -3 0
11 14 0
-2 -24 0
-22 11 0
8 20 0
7 -18 0
-1 -15 0
