c PROBLEM_025_070_14  vars=25  clausulas=70  k=2
p cnf 25 70
1 21 0
7 1 0
-25 -8 0
-21 -20 0
-16 6 0
-13 5 0
-19 4 0
21 25 0
-14 -21 0
9 -12 0
-22 11 0
-25 -12 0
-24 18 0
-24 -3 0
-12 -14 0
25 2 0
-20 9 0
11 10 0
15 9 0
-9 19 0
-22 -14 0
7 4 0
15 -3 0
-12 -7 0
7 -6 0
16 14 0
4 8 0
-22 -18 0
-7 23 0
14 8 0
-22 9 0
12 24 0
-4 13 0
-18 7 0
-3 -16 0
-5 13 0
7 12 0
-3 24 0
13 -25 0
23 -20 0
22 18 0
-9 23 0
-21 10 0
18 -25 0
8 4 0
23 -13 0
14 -16 0
11 -16 0
2 17 0
-19 15 0
-14 25 0
-25 6 0
-11 -3 0
7 -8 0
-16 -24 0
10 -16 0
6 -2 0
17 24 0
7 13 0
-21 -16 0
-25 8 0
16 19 0
-14 12 0
-4 -22 0
23 -5 0
-17 9 0
20 14 0
24 17 0
-8 2 0
17 7 0
