c PROBLEM_025_070_05  vars=25  clausulas=70  k=2
p cnf 25 70
14 -22 0
5 -14 0
-13 4 0
-9 10 0
-2 19 0
12 5 0
19 -24 0
-9 -5 0
-23 -22 0
24 -1 0
-9 -13 0
-21 18 0
12 -7 0
13 -8 0
-5 -20 0
-7 10 0
20 12 0
-18 3 0
7 10 0
-5 -14 0
-8 -25 0
-15 -4 0
-15 -2 0
-21 13 0
-15 -16 0
13 -20 0
-16 -19 0
-23 -14 0
8 -5 0
21 22 0
-24 21 0
-5 -1 0
22 -6 0
-4 -19 0
16 3 0
18 -17 0
-11 25 0
9 -6 0
-8 -17 0
21 -16 0
24 9 0
-9 23 0
-7 4 0
17 -7 0
17 6 0
-10 3 0
24 22 0
-3 19 0
2 -25 0
22 19 0
13 16 0
8 -20 0
5 24 0
-19 22 0
-13 -2 0
-21 -4 0
-5 -12 0
12 -9 0
2 4 0
8 -11 0
-17 -13 0
-6 -3 0
8 6 0
-4 2 0
11 18 0
-18 15 0
-17 -16 0
-16 22 0
-14 -17 0
-8 -10 0
