c PROBLEM_025_070_33  vars=25  clausulas=70  k=2
p cnf 25 70
-19 1 0
22 15 0
-25 -16 0
-4 -25 0
3 10 0
-1 -12 0
-13 -23 0
-16 19 0
10 16 0
15 -16 0
-22 12 0
-23 -25 0
13 20 0
16 -24 0
-19 17 0
8 23 0
-9 -23 0
12 -15 0
-4 -19 0
-1 5 0
25 -18 0
-9 8 0
-1 -21 0
17 23 0
-7 23 0
22 -12 0
-21 11 0
-19 17 0
-3 -12 0
-4 -16 0
-13 7 0
21 -10 0
7 13 0
-7 11 0
16 -22 0
-14 21 0
-10 -22 0
-21 -11 0
21 -16 0
-2 19 0
-22 7 0
16 -18 0
-11 -16 0
-14 -1 0
-18 24 0
24 1 0
18 -1 0
-5 -14 0
-1 -6 0
-5 21 0
-5 6 0
1 17 0
-13 15 0
-7 4 0
-19 15 0
-7 -15 0
-11 4 0
10 -5 0
13 -6 0
-13 -24 0
-20 -25 0
25 -2 0
-20 -4 0
9 1 0
-9 -4 0
22 4 0
23 -22 0
25 -23 0
-10 2 0
23 -13 0
