c PROBLEM_025_070_07  vars=25  clausulas=70  k=2
p cnf 25 70
16 -11 0
14 3 0
23 25 0
-18 -22 0
9 6 0
12 -18 0
-21 16 0
4 -15 0
22 -13 0
23 7 0
-10 16 0
12 -10 0
-5 -11 0
18 15 0
12 25 0
-25 -17 0
3 4 0
-7 19 0
7 -19 0
-23 10 0
1 -19 0
-25 -19 0
25 -24 0
10 13 0
1 -21 0
-22 11 0
-15 14 0
8 18 0
6 -18 0
7 -23 0
-18 -11 0
-5 -10 0
1 -5 0
21 23 0
-2 17 0
6 -19 0
2 -19 0
13 20 0
11 -3 0
23 -21 0
3 -7 0
-20 -10 0
-19 2 0
-23 1 0
-8 9 0
19 6 0
16 12 0
5 -18 0
-7 10 0
-25 9 0
-18 14 0
-24 21 0
-14 -9 0
2 4 0
3 17 0
22 -4 0
13 19 0
-4 23 0
-15 -8 0
3 -8 0
-24 -14 0
-12 15 0
10 14 0
9 -13 0
-10 20 0
11 -4 0
-5 -21 0
8 -7 0
17 -14 0
20 12 0
