c PROBLEM_025_070_44  vars=25  clausulas=70  k=2
p cnf 25 70
-13 25 0
-13 7 0
7 -6 0
-19 21 0
3 -9 0
8 24 0
22 10 0
-22 -16 0
17 -3 0
10 19 0
-2 15 0
12 -7 0
-2 4 0
19 -14 0
-5 -14 0
8 -1 0
5 -12 0
-15 6 0
9 -8 0
-23 3 0
-20 -19 0
3 -13 0
2 4 0
12 -20 0
18 9 0
-25 17 0
3 -6 0
6 -9 0
-23 19 0
18 5 0
2 -23 0
14 -11 0
8 -7 0
-18 -17 0
-10 -17 0
8 -16 0
-4 9 0
-8 3 0
-11 -12 0
22 18 0
-16 -2 0
14 23 0
11 16 0
-24 2 0
-1 14 0
-19 -7 0
20 10 0
-21 -6 0
7 -22 0
17 -8 0
25 -3 0
15 -12 0
-3 20 0
24 14 0
21 24 0
1 16 0
-3 -19 0
22 8 0
5 -3 0
-14 2 0
-18 -13 0
-1 25 0
-11 15 0
22 8 0
-25 -6 0
19 11 0
7 -22 0
20 -3 0
7 -21 0
13 17 0
