c PROBLEM_025_100_34  vars=25  clausulas=100  k=2
p cnf 25 100
-21 -1 0
5 24 0
-13 24 0
9 24 0
-4 17 0
9 -5 0
22 -15 0
1 8 0
-22 -6 0
17 -22 0
18 -9 0
8 -5 0
16 7 0
22 -16 0
-7 4 0
-20 24 0
-17 -19 0
-3 11 0
-13 -14 0
-18 -8 0
18 2 0
25 -18 0
-19 20 0
-16 -20 0
11 19 0
-5 -3 0
-25 16 0
-10 6 0
24 -16 0
3 -1 0
-6 13 0
-1 -8 0
12 5 0
-25 -7 0
1 25 0
-10 9 0
8 18 0
-23 21 0
-11 -12 0
-3 23 0
3 17 0
21 20 0
-6 -10 0
22 -4 0
-5 -21 0
-18 -23 0
22 24 0
20 -22 0
-12 -21 0
-4 -8 0
-17 23 0
12 8 0
-17 -13 0
9 -11 0
7 22 0
-8 -13 0
16 -21 0
-19 -15 0
-1 -23 0
-16 1 0
18 -3 0
-20 -18 0
15 -11 0
-1 24 0
19 24 0
-4 11 0
-21 2 0
24 17 0
-15 5 0
-4 -9 0
-7 22 0
9 -16 0
21 13 0
-15 14 0
-5 9 0
11 4 0
-24 18 0
14 -25 0
-25 7 0
22 17 0
4 -24 0
-9 14 0
-3 10 0
9 20 0
14 22 0
17 -19 0
-22 9 0
2 -23 0
5 -12 0
-2 -3 0
11 -3 0
24 8 0
13 -23 0
1 -8 0
7 8 0
4 -13 0
17 -8 0
19 -5 0
-13 -20 0
7 -15 0
