c PROBLEM_025_100_30  vars=25  clausulas=100  k=2
p cnf 25 100
-13 17 0
10 -7 0
5 -1 0
13 3 0
21 19 0
-1 7 0
17 1 0
-24 1 0
12 -11 0
-20 16 0
25 18 0
-7 -16 0
14 3 0
-19 -7 0
-5 8 0
15 -5 0
6 -14 0
-17 -5 0
17 -14 0
14 18 0
8 -7 0
1 2 0
15 10 0
-20 -9 0
1 24 0
21 6 0
-18 6 0
-21 -8 0
16 -6 0
23 2 0
-4 2 0
12 -22 0
-10 7 0
10 -16 0
3 -25 0
21 -23 0
-3 15 0
-7 4 0
20 -2 0
-19 8 0
4 17 0
21 -6 0
4 -5 0
16 21 0
14 4 0
-14 -23 0
1 -2 0
12 -18 0
-21 11 0
10 16 0
-24 8 0
-14 7 0
-10 23 0
8 7 0
-14 -2 0
-22 4 0
-10 -25 0
-7 -4 0
-5 14 0
-22 13 0
12 10 0
-20 6 0
23 4 0
-24 -22 0
-9 15 0
12 -21 0
16 18 0
9 16 0
21 15 0
16 -21 0
23 -6 0
-10 6 0
-24 1 0
-25 8 0
15 6 0
3 -17 0
20 -21 0
-25 4 0
-16 25 0
14 -24 0
1 -16 0
25 -13 0
22 2 0
5 -10 0
-1 -3 0
-14 -23 0
-14 -1 0
-18 -21 0
-16 25 0
-24 17 0
-11 1 0
5 -19 0
-8 24 0
-3 12 0
-24 8 0
-8 24 0
17 -15 0
7 -3 0
8 23 0
6 -2 0
