c PROBLEM_025_100_39  vars=25  clausulas=100  k=2
p cnf 25 100
-14 -11 0
3 -7 0
7 -14 0
7 -21 0
-24 -21 0
-19 21 0
-23 -8 0
20 21 0
-1 -15 0
17 -8 0
-11 24 0
-10 7 0
18 -2 0
25 -5 0
-15 18 0
22 -9 0
10 -8 0
3 -12 0
-19 -25 0
-23 -20 0
-2 16 0
3 -22 0
9 -15 0
24 -13 0
9 17 0
19 17 0
-10 9 0
-6 16 0
23 -14 0
22 -11 0
-9 18 0
-8 -1 0
-12 25 0
-4 1 0
4 17 0
-1 6 0
-24 -7 0
-3 5 0
5 -13 0
17 2 0
-3 18 0
-6 4 0
-1 8 0
-3 -22 0
-3 5 0
19 16 0
-2 -11 0
-3 7 0
2 -3 0
-16 13 0
-4 -23 0
-22 -14 0
23 -7 0
23 -17 0
16 17 0
-2 5 0
22 18 0
-17 18 0
-5 17 0
-18 -14 0
16 -21 0
17 -21 0
5 21 0
13 4 0
-16 9 0
-11 -12 0
14 3 0
12 21 0
17 -22 0
-2 -11 0
-14 24 0
-10 -25 0
-4 -1 0
7 -2 0
-15 8 0
-24 -18 0
-3 7 0
23 13 0
22 9 0
15 -2 0
-13 -1 0
-20 -4 0
-20 2 0
-17 15 0
-4 -14 0
-9 20 0
-6 -4 0
-24 23 0
4 23 0
7 -23 0
-17 -12 0
-20 7 0
12 11 0
17 -4 0
12 -10 0
2 -7 0
-11 22 0
-18 -11 0
6 8 0
19 22 0
