c PROBLEM_025_100_41  vars=25  clausulas=100  k=2
p cnf 25 100
-7 -16 0
23 -19 0
21 -2 0
25 22 0
4 1 0
17 18 0
22 23 0
10 17 0
-13 -16 0
-2 4 0
9 -17 0
1 23 0
-16 8 0
-5 4 0
-10 -19 0
6 -13 0
25 6 0
9 19 0
6 7 0
12 -25 0
14 15 0
18 7 0
12 22 0
-13 -1 0
21 24 0
-13 4 0
-10 24 0
-11 21 0
12 -22 0
-5 -14 0
-7 -8 0
25 16 0
10 -4 0
-24 -12 0
2 25 0
24 -16 0
-13 -24 0
9 8 0
4 5 0
-10 -9 0
-20 11 0
24 23 0
17 -2 0
3 -10 0
-11 4 0
24 -20 0
14 10 0
-18 22 0
-13 -3 0
19 10 0
-1 -8 0
20 3 0
6 -22 0
11 6 0
14 -23 0
3 -20 0
-4 12 0
-24 -5 0
24 8 0
25 14 0
25 5 0
-11 24 0
-15 21 0
-10 3 0
-13 22 0
-19 -24 0
-25 -4 0
21 -10 0
15 6 0
11 19 0
11 -21 0
-10 -8 0
17 3 0
-8 -24 0
9 10 0
-16 -3 0
25 17 0
4 -20 0
25 22 0
13 -2 0
-23 -21 0
21 3 0
-3 -8 0
-7 -25 0
-6 11 0
17 -24 0
9 2 0
6 -4 0
-11 -4 0
1 -10 0
8 24 0
23 8 0
12 -24 0
-15 18 0
-3 10 0
-1 13 0
9 -19 0
-13 14 0
18 -23 0
-13 21 0
