c PROBLEM_025_100_29  vars=25  clausulas=100  k=2
p cnf 25 100
3 10 0
-14 22 0
22 18 0
1 -19 0
23 1 0
15 -7 0
-19 -14 0
-16 3 0
-24 -16 0
17 13 0
15 -25 0
22 -25 0
14 12 0
-23 19 0
3 -12 0
17 -4 0
4 11 0
-2 -1 0
-5 -21 0
4 17 0
-1 14 0
24 -15 0
-15 -6 0
9 -13 0
11 21 0
13 23 0
24 2 0
7 -23 0
15 -5 0
5 -25 0
-20 -3 0
9 17 0
15 -10 0
-8 14 0
3 7 0
3 -7 0
21 18 0
-20 4 0
-8 -23 0
-24 25 0
21 -20 0
-24 9 0
13 15 0
17 -15 0
-13 -17 0
-8 4 0
-1 -12 0
7 16 0
-17 -7 0
19 11 0
-13 -6 0
-12 -22 0
-20 11 0
2 5 0
-14 8 0
-5 22 0
1 -4 0
16 -3 0
21 13 0
23 -18 0
-22 -17 0
11 -6 0
-20 6 0
-4 10 0
8 -6 0
13 -11 0
-18 -23 0
-9 8 0
-7 15 0
15 8 0
-23 -3 0
24 2 0
17 4 0
-1 15 0
23 25 0
-3 -13 0
-21 -17 0
-15 18 0
-5 16 0
-2 3 0
4 13 0
3 18 0
20 -5 0
-12 -14 0
19 -25 0
20 -14 0
-13 -17 0
11 1 0
-20 23 0
13 2 0
14 1 0
-22 -16 0
-9 -6 0
9 12 0
21 -5 0
2 -11 0
5 -22 0
-21 -25 0
1 11 0
-25 -16 0
