c PROBLEM_025_100_25  vars=25  clausulas=100  k=2
p cnf 25 100
-6 18 0
21 25 0
-7 -12 0
-24 -10 0
11 1 0
-11 -20 0
12 25 0
3 -12 0
-4 -2 0
8 7 0
-2 -16 0
-8 -6 0
9 20 0
10 7 0
-8 11 0
-4 24 0
17 -1 0
13 6 0
13 -4 0
5 8 0
-24 -13 0
-11 -18 0
23 -2 0
-12 17 0
17 -21 0
-20 -25 0
5 23 0
-24 2 0
-7 -16 0
-12 -10 0
16 4 0
-4 24 0
5 -9 0
15 13 0
7 16 0
15 12 0
11 15 0
1 -6 0
8 11 0
10 3 0
-25 -15 0
-21 20 0
-15 22 0
-10 -24 0
-13 -5 0
-14 -11 0
-11 17 0
-23 20 0
-3 -22 0
-13 -1 0
-16 19 0
-13 11 0
-1 11 0
-8 -20 0
19 -24 0
-7 -13 0
-3 -6 0
-21 12 0
15 -2 0
-8 2 0
-4 -5 0
-1 -2 0
23 24 0
2 -19 0
-19 -24 0
15 13 0
-2 20 0
11 -17 0
-8 -19 0
18 -15 0
-22 -25 0
-4 12 0
12 18 0
-9 -21 0
-20 -15 0
22 16 0
12 -8 0
5 4 0
7 -11 0
-1 19 0
-14 -8 0
-25 23 0
-6 19 0
-10 13 0
-10 -7 0
-3 -8 0
8 1 0
10 13 0
16 -7 0
-2 1 0
-23 21 0
-17 7 0
-13 15 0
13 -16 0
21 15 0
-21 -24 0
3 -9 0
3 -21 0
11 9 0
-2 8 0
