c PROBLEM_025_100_26  vars=25  clausulas=100  k=2
p cnf 25 100
-18 25 0
5 25 0
16 12 0
-2 3 0
-3 17 0
1 5 0
1 -15 0
21 -5 0
9 -21 0
-7 -19 0
-21 -11 0
3 12 0
-7 -22 0
7 -12 0
-8 -14 0
-25 18 0
6 15 0
-12 -11 0
-23 -25 0
-8 -10 0
-3 1 0
-11 -21 0
14 -18 0
-10 -25 0
4 11 0
-2 6 0
6 -10 0
2 16 0
4 -9 0
-6 -4 0
-12 -13 0
-23 8 0
-17 25 0
5 24 0
-14 -15 0
-20 -24 0
24 5 0
-5 -13 0
-5 3 0
24 20 0
2 22 0
-9 25 0
-16 15 0
-8 -18 0
-19 16 0
-13 -18 0
5 18 0
-12 -24 0
3 20 0
-4 -25 0
18 12 0
6 5 0
-20 18 0
8 24 0
8 -22 0
-24 7 0
11 2 0
2 -9 0
-2 15 0
-2 -24 0
23 5 0
-4 18 0
-10 -23 0
21 19 0
-16 -22 0
-7 22 0
-17 -3 0
-16 -21 0
4 -17 0
-13 -3 0
-4 5 0
2 12 0
10 9 0
-21 11 0
11 12 0
-1 -2 0
3 2 0
-22 16 0
16 -3 0
13 -14 0
-18 21 0
16 9 0
-23 12 0
20 16 0
-22 -5 0
1 -10 0
-10 -22 0
14 6 0
10 19 0
-2 8 0
12 3 0
21 -25 0
17 22 0
4 -23 0
13 -22 0
-4 -8 0
6 22 0
1 -6 0
13 19 0
12 -23 0
