c PROBLEM_025_100_44  vars=25  clausulas=100  k=2
p cnf 25 100
23 12 0
4 21 0
6 -12 0
9 15 0
22 3 0
-8 -6 0
4 -20 0
-11 17 0
-22 -13 0
-3 -22 0
-18 -5 0
-13 7 0
-23 -5 0
2 -18 0
-19 16 0
3 -10 0
-11 -9 0
-7 -17 0
-14 4 0
-8 -15 0
2 -22 0
7 -12 0
-16 23 0
-23 6 0
23 -22 0
9 2 0
5 -18 0
-11 17 0
-8 2 0
2 6 0
-22 -24 0
15 16 0
11 7 0
23 8 0
-7 14 0
23 22 0
5 14 0
-3 -2 0
18 -16 0
6 11 0
-20 -7 0
-21 23 0
-13 21 0
16 -1 0
-9 16 0
-2 -20 0
15 -13 0
-20 -25 0
-13 -14 0
-14 -1 0
-23 -12 0
3 5 0
-18 23 0
10 -3 0
-7 -16 0
13 10 0
9 -18 0
-8 -14 0
-24 21 0
-15 -6 0
11 -18 0
-23 -22 0
-25 -13 0
-5 24 0
21 10 0
9 14 0
-12 -10 0
-14 12 0
-17 -6 0
10 -25 0
-8 15 0
8 7 0
25 4 0
-16 -22 0
-24 -25 0
-2 -16 0
-5 -8 0
19 -3 0
-4 18 0
-9 5 0
23 8 0
-3 -19 0
22 -21 0
-15 -8 0
-1 -14 0
6 24 0
11 -22 0
17 -7 0
-16 -13 0
18 20 0
23 -2 0
2 -10 0
-23 14 0
-9 -17 0
20 25 0
-1 2 0
-7 -21 0
7 -11 0
-2 -21 0
19 14 0
