c PROBLEM_025_100_09  vars=25  clausulas=100  k=2
p cnf 25 100
7 -3 0
10 2 0
-19 9 0
-9 20 0
-21 12 0
22 -14 0
2 -14 0
-6 2 0
9 23 0
14 -13 0
4 -24 0
19 2 0
3 8 0
-3 15 0
-11 22 0
19 -16 0
-14 2 0
-19 -21 0
-10 -14 0
25 -11 0
-14 -24 0
-23 22 0
6 -24 0
-16 3 0
8 -4 0
-14 24 0
15 -1 0
3 16 0
21 -15 0
12 -1 0
-9 -2 0
6 15 0
20 -2 0
-9 19 0
9 -13 0
-6 -9 0
15 -10 0
9 -4 0
1 -24 0
3 -24 0
-16 -25 0
-6 -2 0
-19 -5 0
23 -3 0
-2 -7 0
-19 18 0
-24 -10 0
6 -25 0
-9 13 0
-20 12 0
17 7 0
-11 -5 0
21 -23 0
-2 -1 0
-16 -17 0
1 -8 0
22 -20 0
1 21 0
2 -17 0
5 4 0
-17 -24 0
15 -7 0
24 15 0
13 -19 0
13 -11 0
-16 -10 0
-25 1 0
20 -2 0
17 5 0
-1 21 0
22 17 0
20 -16 0
-22 13 0
6 -15 0
9 -3 0
-15 -13 0
24 21 0
-24 -18 0
15 -9 0
4 14 0
21 -24 0
-16 -2 0
1 16 0
-20 21 0
14 20 0
11 17 0
16 7 0
-8 19 0
-10 12 0
10 -13 0
-5 -4 0
25 -15 0
12 -5 0
-24 3 0
8 2 0
10 -18 0
-1 17 0
-7 9 0
-16 9 0
2 3 0
