c PROBLEM_025_100_47  vars=25  clausulas=100  k=2
p cnf 25 100
-13 10 0
2 -10 0
7 -18 0
-11 -10 0
11 23 0
12 13 0
22 -17 0
7 -3 0
-12 6 0
15 22 0
20 19 0
-24 -17 0
8 -4 0
-21 19 0
8 -1 0
-25 -11 0
-6 -18 0
7 -3 0
-24 3 0
10 -23 0
-21 3 0
16 -9 0
-7 -2 0
22 -20 0
7 8 0
-9 -24 0
-7 4 0
18 -21 0
13 -16 0
-7 -5 0
15 -11 0
24 -21 0
13 -23 0
-23 -15 0
8 20 0
-13 -18 0
-14 -12 0
2 5 0
23 -19 0
9 16 0
2 -7 0
12 10 0
20 -4 0
-4 -18 0
3 25 0
-14 -13 0
14 -6 0
1 13 0
23 1 0
-2 17 0
-7 -22 0
-1 6 0
-8 -18 0
2 -19 0
-19 15 0
-14 11 0
17 -8 0
13 -2 0
-5 -22 0
-18 2 0
16 21 0
-20 6 0
12 -20 0
1 14 0
-12 2 0
-19 -3 0
4 3 0
-6 8 0
4 22 0
17 -11 0
15 3 0
-7 -16 0
14 6 0
18 5 0
-21 22 0
20 23 0
14 20 0
18 4 0
14 -15 0
-23 3 0
18 -8 0
13 -18 0
-22 -9 0
-24 -13 0
-15 13 0
15 13 0
-25 -18 0
19 -18 0
14 -3 0
-25 23 0
-7 -2 0
13 15 0
9 -6 0
-15 16 0
23 22 0
-21 -11 0
-20 18 0
13 17 0
18 8 0
-25 18 0
