c PROBLEM_025_100_10  vars=25  clausulas=100  k=2
p cnf 25 100
-21 -12 0
14 19 0
-8 -11 0
23 9 0
1 15 0
-25 19 0
-19 -16 0
13 12 0
-17 -4 0
2 13 0
-1 -5 0
-21 23 0
3 -10 0
1 23 0
-14 -11 0
-11 -25 0
5 -6 0
6 23 0
20 -23 0
17 -1 0
-21 23 0
-15 -14 0
-24 -5 0
21 -12 0
-24 12 0
19 11 0
23 5 0
8 -10 0
3 -10 0
-18 -7 0
23 3 0
-5 -1 0
25 -17 0
12 23 0
-24 -12 0
12 -15 0
-2 20 0
-2 -19 0
12 -20 0
22 -12 0
21 -24 0
6 22 0
20 -4 0
-4 -5 0
-16 -18 0
-22 -21 0
-6 -5 0
10 18 0
-1 -15 0
-14 -19 0
-1 -6 0
11 -8 0
16 -3 0
-22 8 0
1 20 0
17 13 0
15 -12 0
-11 21 0
-2 -8 0
-16 -1 0
-6 -16 0
-23 -20 0
-7 25 0
-9 11 0
-12 10 0
1 19 0
-6 -12 0
3 -24 0
-6 -15 0
24 -19 0
-20 17 0
7 9 0
25 -23 0
14 -20 0
-17 -2 0
1 6 0
-8 3 0
-13 -7 0
11 3 0
-21 23 0
9 -20 0
-1 -14 0
-22 19 0
-4 19 0
-25 6 0
-16 -12 0
-7 -16 0
-7 -1 0
-22 -11 0
-3 11 0
5 -21 0
-19 11 0
4 17 0
-14 6 0
-15 19 0
6 -15 0
-25 9 0
-22 24 0
-21 11 0
-19 5 0
