c PROBLEM_025_100_07  vars=25  clausulas=100  k=2
p cnf 25 100
17 -21 0
-16 11 0
-6 -20 0
12 25 0
3 9 0
18 17 0
-3 7 0
18 4 0
20 -10 0
-22 24 0
-10 -24 0
20 -25 0
21 6 0
-8 -20 0
18 -4 0
-10 -6 0
23 24 0
4 -18 0
-19 3 0
18 7 0
22 12 0
-23 4 0
14 8 0
2 -9 0
-12 -25 0
5 7 0
5 11 0
-12 -18 0
-19 -1 0
-19 14 0
4 8 0
-18 10 0
-20 -17 0
4 -14 0
23 -7 0
-4 -8 0
14 11 0
2 14 0
24 -7 0
-6 13 0
-17 25 0
22 12 0
-10 24 0
-17 -25 0
-7 13 0
9 -8 0
10 21 0
-3 16 0
-14 -2 0
25 4 0
-4 -12 0
8 -15 0
1 23 0
-4 1 0
-14 9 0
21 -5 0
20 -17 0
5 -18 0
-22 -4 0
1 -3 0
9 -22 0
9 -5 0
-6 9 0
-3 18 0
15 21 0
-24 1 0
-9 -14 0
-1 -14 0
18 -7 0
-4 2 0
21 15 0
6 25 0
-10 -12 0
14 21 0
-3 -12 0
-11 4 0
2 16 0
-11 22 0
-23 -6 0
7 8 0
8 -17 0
-19 -11 0
18 23 0
-18 9 0
-16 3 0
19 -16 0
-17 -15 0
-15 4 0
-7 19 0
-14 -11 0
-6 11 0
-24 -23 0
21 24 0
19 11 0
-15 13 0
16 -23 0
-24 -2 0
11 -25 0
15 -13 0
11 13 0
