c PROBLEM_025_100_22  vars=25  clausulas=100  k=2
p cnf 25 100
2 -22 0
-5 -14 0
-6 -15 0
-6 21 0
1 -10 0
-25 -8 0
-24 -16 0
20 -8 0
1 -22 0
-17 15 0
-25 3 0
15 5 0
7 -9 0
-5 -17 0
15 4 0
-1 2 0
15 -3 0
-5 -21 0
13 -2 0
18 15 0
-16 17 0
12 8 0
19 20 0
-5 -2 0
19 -11 0
-24 4 0
13 -2 0
9 18 0
-1 10 0
20 -7 0
5 -8 0
-21 -3 0
-25 -2 0
12 4 0
24 1 0
-22 -20 0
8 11 0
-2 21 0
-24 -1 0
16 25 0
-8 23 0
21 -15 0
-20 6 0
-1 8 0
7 23 0
25 -7 0
10 -14 0
-15 -16 0
15 16 0
-25 4 0
24 -13 0
15 -25 0
5 -19 0
-25 -12 0
-6 14 0
18 -1 0
6 4 0
-20 -15 0
23 -4 0
19 -8 0
-16 -13 0
10 -18 0
13 6 0
-20 -24 0
-6 13 0
-2 -24 0
-1 -2 0
12 18 0
7 5 0
1 -19 0
-21 -11 0
-18 1 0
-15 12 0
20 -19 0
18 10 0
-15 -1 0
-23 1 0
15 10 0
9 -13 0
-2 21 0
14 -24 0
-10 -13 0
-10 23 0
8 -18 0
-3 9 0
-19 16 0
-13 16 0
7 2 0
9 -14 0
1 -3 0
16 -25 0
-11 -9 0
-20 -13 0
6 -24 0
-7 -22 0
-15 -6 0
-2 7 0
17 20 0
18 -14 0
23 9 0
