c PROBLEM_025_100_27  vars=25  clausulas=100  k=2
p cnf 25 100
11 4 0
8 -6 0
-17 -25 0
-22 -7 0
-23 25 0
15 23 0
15 -19 0
-2 7 0
15 13 0
-21 -9 0
-11 7 0
-7 19 0
-17 -6 0
12 5 0
13 18 0
-5 -22 0
6 -10 0
13 24 0
15 7 0
8 -7 0
17 25 0
-16 -24 0
2 23 0
13 18 0
-2 -5 0
-5 -4 0
17 -8 0
-24 14 0
-3 8 0
24 3 0
6 -3 0
-6 19 0
-14 -20 0
21 -17 0
-24 -21 0
-6 -14 0
-23 8 0
-25 17 0
15 -16 0
-7 4 0
-8 5 0
3 -11 0
16 -21 0
10 1 0
-2 22 0
8 -19 0
-1 14 0
4 10 0
14 -7 0
10 4 0
-11 9 0
23 16 0
-10 -13 0
-3 17 0
-21 24 0
-3 21 0
2 22 0
-22 -7 0
7 -18 0
5 -17 0
24 -22 0
20 -1 0
14 -3 0
-6 21 0
-15 4 0
6 19 0
20 -11 0
12 5 0
-6 8 0
-14 10 0
-19 24 0
-6 7 0
-16 -5 0
14 1 0
-24 -10 0
6 -22 0
23 1 0
2 24 0
10 -2 0
23 11 0
22 5 0
-6 -1 0
23 6 0
-1 21 0
-18 14 0
12 20 0
11 -4 0
-16 15 0
-10 -20 0
-15 17 0
23 4 0
-5 -22 0
25 -8 0
23 -19 0
-23 24 0
4 -25 0
-15 -6 0
-19 -20 0
1 -6 0
-11 5 0
