c PROBLEM_025_100_11  vars=25  clausulas=100  k=2
p cnf 25 100
6 -12 0
2 20 0
-18 10 0
18 -14 0
4 -7 0
-19 -20 0
9 -22 0
19 4 0
-4 13 0
-24 -19 0
-14 2 0
23 -16 0
5 2 0
14 -3 0
3 2 0
21 16 0
10 20 0
-16 -9 0
12 23 0
10 -11 0
-22 -21 0
19 -6 0
-10 22 0
1 9 0
-11 -21 0
-8 17 0
1 21 0
-16 -14 0
-7 24 0
-24 -2 0
9 -24 0
-4 24 0
-24 -11 0
3 11 0
-2 8 0
8 1 0
2 8 0
-12 -22 0
22 -3 0
-24 20 0
3 -18 0
-20 -21 0
18 -25 0
-10 -5 0
-1 8 0
1 17 0
-10 6 0
-18 17 0
-6 -15 0
16 -15 0
-25 18 0
25 -5 0
-12 -7 0
-14 23 0
-25 -20 0
-11 23 0
3 4 0
23 -16 0
-10 12 0
25 13 0
-14 -10 0
8 -11 0
11 -16 0
13 -4 0
12 11 0
-6 -17 0
8 -23 0
6 16 0
-17 -2 0
12 19 0
-20 16 0
-1 25 0
2 -9 0
-12 -3 0
-14 -7 0
15 -23 0
-22 1 0
1 -21 0
5 -23 0
14 -10 0
18 -14 0
-20 -6 0
-18 -25 0
-19 -22 0
-11 -10 0
-16 21 0
-22 -16 0
-4 10 0
-4 -13 0
-4 21 0
-24 -5 0
-4 -9 0
11 5 0
20 -24 0
16 -24 0
-18 2 0
-25 7 0
18 -20 0
-7 8 0
-12 -23 0
