c PROBLEM_025_100_18  vars=25  clausulas=100  k=2
p cnf 25 100
-18 -16 0
-11 -22 0
21 25 0
6 25 0
-13 -21 0
18 -3 0
-13 17 0
-23 22 0
2 -24 0
6 -14 0
-11 -24 0
15 25 0
-18 14 0
21 14 0
-3 8 0
19 -13 0
-4 24 0
-1 13 0
-6 -19 0
-5 24 0
-12 7 0
-23 -11 0
-11 -17 0
-10 1 0
-12 -2 0
-11 -1 0
-17 2 0
3 -25 0
-16 -6 0
25 -24 0
6 -19 0
-2 -12 0
-22 11 0
24 12 0
-20 8 0
-9 -6 0
-21 7 0
12 2 0
-4 22 0
-3 -6 0
-2 24 0
23 18 0
-7 -10 0
-2 -21 0
-23 6 0
14 25 0
2 20 0
-6 -16 0
-9 -19 0
-10 -19 0
-8 -17 0
-21 9 0
-1 -20 0
-15 5 0
16 -3 0
-21 -16 0
-25 15 0
19 14 0
3 19 0
-6 13 0
-8 16 0
-15 11 0
-6 -18 0
-23 -25 0
-10 -14 0
-9 -5 0
-3 14 0
7 18 0
5 9 0
-17 14 0
22 -10 0
24 3 0
-10 11 0
-11 -17 0
10 7 0
16 22 0
-17 15 0
-3 -25 0
6 -12 0
-2 24 0
23 -3 0
-3 -17 0
4 8 0
-25 -21 0
-4 -7 0
-9 24 0
21 7 0
24 -13 0
17 9 0
12 3 0
-11 -15 0
12 -15 0
3 6 0
-14 -2 0
25 -15 0
-22 7 0
-8 3 0
-1 -8 0
-16 -1 0
-6 24 0
