c PROBLEM_015_080_42  vars=15  clausulas=80  k=2
p cnf 15 80
-3 -10 0
-15 -12 0
-9 10 0
-2 7 0
12 -8 0
6 -15 0
14 -9 0
-6 -12 0
-9 -13 0
-8 10 0
-4 -6 0
-1 14 0
-10 -5 0
12 13 0
3 6 0
6 -3 0
3 -11 0
14 12 0
12 8 0
1 -5 0
-4 -3 0
12 8 0
-5 4 0
-7 5 0
1 13 0
-14 1 0
-8 13 0
-8 -13 0
6 12 0
5 2 0
-1 -11 0
7 1 0
7 -12 0
3 -14 0
-6 7 0
-5 2 0
13 -1 0
-13 2 0
1 7 0
10 -7 0
3 9 0
6 -14 0
4 -6 0
-11 -13 0
-14 -5 0
7 -6 0
-14 -4 0
-2 11 0
-14 -15 0
-15 -4 0
-3 15 0
11 -1 0
-5 1 0
2 9 0
-11 2 0
-15 -12 0
1 15 0
14 10 0
6 -12 0
15 -8 0
8 1 0
-7 -13 0
-8 10 0
-15 9 0
-9 -15 0
-12 -5 0
6 10 0
15 6 0
-7 6 0
9 -10 0
14 -1 0
-8 -9 0
-8 -6 0
1 5 0
11 -2 0
3 12 0
-12 -3 0
9 -14 0
1 11 0
4 -1 0
