c PROBLEM_015_080_28  vars=15  clausulas=80  k=2
p cnf 15 80
-15 12 0
-4 9 0
-2 -5 0
13 10 0
-15 7 0
8 -3 0
-10 -7 0
-6 -3 0
7 -8 0
3 -11 0
12 8 0
-6 -14 0
-8 13 0
14 -11 0
-1 5 0
4 -11 0
9 -13 0
-12 6 0
8 -4 0
-10 12 0
-5 10 0
-13 -12 0
10 -6 0
-11 -3 0
-14 -7 0
-15 6 0
-7 4 0
8 -2 0
7 14 0
9 11 0
6 14 0
2 7 0
-3 -8 0
-12 11 0
12 -14 0
-14 5 0
9 13 0
-6 12 0
13 -7 0
-13 7 0
6 11 0
-5 -12 0
7 -9 0
-1 10 0
7 1 0
-2 -9 0
-4 12 0
-7 6 0
-3 -7 0
-7 -2 0
14 12 0
14 -13 0
8 -10 0
-7 14 0
2 9 0
-11 10 0
-13 8 0
12 -6 0
8 -12 0
-6 5 0
9 -11 0
-12 -7 0
7 -8 0
9 -6 0
10 -2 0
-15 -6 0
-10 13 0
4 -8 0
-4 -9 0
5 3 0
12 -4 0
6 -15 0
1 15 0
-11 7 0
-13 -9 0
-11 8 0
7 6 0
-10 -9 0
5 -13 0
-10 5 0
