c PROBLEM_015_080_12  vars=15  clausulas=80  k=2
p cnf 15 80
13 -10 0
15 -14 0
-2 -3 0
2 -4 0
5 -9 0
-12 14 0
-8 -11 0
-12 -5 0
-10 15 0
-9 3 0
-10 -4 0
8 14 0
12 -10 0
13 -12 0
-9 -15 0
-7 -4 0
-1 6 0
8 10 0
-12 9 0
-4 5 0
12 10 0
10 13 0
-6 12 0
8 -2 0
8 3 0
14 -3 0
14 10 0
9 -7 0
4 7 0
2 7 0
-6 -11 0
-5 -15 0
-3 5 0
-15 1 0
9 -4 0
-8 -6 0
-6 1 0
-6 14 0
6 15 0
10 12 0
-10 -12 0
-11 10 0
-8 -6 0
1 3 0
-6 8 0
7 3 0
-12 3 0
15 13 0
11 -8 0
-12 1 0
-1 -9 0
-1 13 0
8 3 0
-15 -3 0
-12 1 0
-2 -3 0
-13 -7 0
-12 -9 0
-10 -15 0
12 15 0
-6 -14 0
2 -12 0
6 15 0
-14 -8 0
-8 -14 0
7 10 0
-8 -2 0
-11 -8 0
-4 -15 0
-15 2 0
8 -3 0
7 -8 0
6 -7 0
-14 7 0
13 -12 0
-7 -9 0
-9 1 0
10 5 0
15 -2 0
-14 2 0
