c PROBLEM_015_080_29  vars=15  clausulas=80  k=2
p cnf 15 80
2 5 0
-6 -12 0
1 12 0
11 -6 0
-14 13 0
2 -3 0
2 15 0
13 -7 0
8 15 0
-12 13 0
2 11 0
4 8 0
12 14 0
-6 12 0
-5 2 0
-1 -7 0
13 8 0
-1 14 0
10 -2 0
4 6 0
-3 5 0
-6 13 0
2 9 0
13 -6 0
5 -4 0
-4 5 0
-15 3 0
-9 -4 0
14 -12 0
15 -7 0
-8 11 0
-6 -2 0
-15 -2 0
-13 -6 0
11 6 0
1 12 0
-4 -13 0
-15 14 0
-11 15 0
11 3 0
-9 7 0
8 -4 0
9 7 0
-3 5 0
-14 -6 0
7 6 0
13 10 0
-6 -3 0
-10 8 0
10 -15 0
-1 15 0
-14 -7 0
-15 -3 0
5 1 0
-9 6 0
-4 6 0
9 2 0
13 1 0
10 6 0
11 -8 0
-13 -5 0
5 -12 0
3 -5 0
5 13 0
-10 -1 0
-9 -3 0
7 -12 0
13 15 0
7 -4 0
-14 -6 0
-2 -14 0
-14 15 0
1 15 0
4 5 0
-1 14 0
13 -14 0
-5 1 0
12 -6 0
-11 1 0
8 -5 0
