c PROBLEM_015_080_40  vars=15  clausulas=80  k=2
p cnf 15 80
-10 3 0
-5 -3 0
-2 8 0
12 -8 0
14 8 0
-11 7 0
5 13 0
-6 -2 0
2 -8 0
-3 -14 0
9 -2 0
12 8 0
7 11 0
-1 -9 0
4 9 0
-6 14 0
13 -12 0
-9 3 0
2 -4 0
-12 -15 0
2 -15 0
14 -8 0
4 -3 0
-2 -15 0
-8 -7 0
13 9 0
-4 14 0
-5 -9 0
15 8 0
8 4 0
-6 -9 0
-6 13 0
-8 10 0
14 -4 0
-13 -1 0
-14 1 0
-9 1 0
-12 -13 0
-4 -15 0
-12 -11 0
11 2 0
7 11 0
7 -13 0
6 14 0
8 -13 0
13 -4 0
-10 -4 0
-3 15 0
-11 -12 0
-12 -14 0
-13 1 0
1 2 0
-15 3 0
3 13 0
-13 -1 0
-2 3 0
10 6 0
-13 11 0
-3 10 0
11 4 0
14 -8 0
-3 -4 0
8 -1 0
-8 -13 0
8 -12 0
5 7 0
10 -13 0
-5 14 0
2 9 0
6 15 0
1 14 0
5 3 0
-11 7 0
-5 7 0
15 6 0
-3 5 0
-14 1 0
11 -13 0
-15 2 0
-4 7 0
