c PROBLEM_015_080_36  vars=15  clausulas=80  k=2
p cnf 15 80
-3 8 0
14 -5 0
-3 10 0
-14 2 0
-1 -13 0
3 4 0
15 -11 0
8 1 0
4 -2 0
4 5 0
4 -9 0
-7 -10 0
10 2 0
14 13 0
-2 4 0
10 3 0
-4 -7 0
-5 -7 0
2 10 0
13 4 0
-13 -1 0
14 2 0
7 8 0
13 -11 0
2 -12 0
-8 -1 0
10 9 0
-11 5 0
-11 -1 0
-4 8 0
-10 -7 0
1 -5 0
6 3 0
2 14 0
-12 -13 0
-14 -2 0
-9 -13 0
10 9 0
12 9 0
14 12 0
-5 11 0
-1 11 0
11 -9 0
1 -8 0
-1 15 0
5 -6 0
-11 14 0
-5 -3 0
-15 -12 0
3 -6 0
13 -2 0
-13 -2 0
1 -11 0
-7 8 0
-3 10 0
-14 -12 0
11 2 0
-11 -9 0
11 -1 0
8 15 0
1 -11 0
3 4 0
14 -3 0
-14 4 0
-8 5 0
6 -7 0
-14 -6 0
5 12 0
-1 4 0
-3 -8 0
8 -3 0
-11 -14 0
-6 -15 0
-6 -8 0
-3 12 0
-14 -2 0
-3 -11 0
8 13 0
1 -15 0
-8 -13 0
