c PROBLEM_015_080_07  vars=15  clausulas=80  k=2
p cnf 15 80
4 -6 0
6 -12 0
1 -6 0
-6 5 0
-2 -1 0
6 -7 0
13 -7 0
9 -1 0
15 14 0
-5 8 0
-4 -2 0
-1 -3 0
5 12 0
9 8 0
-8 7 0
-4 -13 0
-6 14 0
13 -8 0
4 -2 0
12 -5 0
-8 -15 0
-5 3 0
-14 -11 0
4 -9 0
1 12 0
10 2 0
-15 7 0
5 11 0
-10 -4 0
14 -8 0
-12 -2 0
3 10 0
6 -5 0
-3 -9 0
-4 11 0
8 5 0
15 7 0
-1 -3 0
-6 -4 0
-13 -2 0
-9 10 0
-6 -7 0
-14 4 0
-1 -9 0
-4 -7 0
-7 -4 0
-7 5 0
4 13 0
-6 11 0
12 5 0
-8 14 0
7 -3 0
5 -8 0
14 -1 0
9 -3 0
6 14 0
-1 -2 0
5 -2 0
2 14 0
11 -13 0
-12 -15 0
8 7 0
14 -1 0
-9 6 0
-15 -2 0
-7 2 0
14 -15 0
12 5 0
4 1 0
-3 13 0
7 -5 0
1 -5 0
12 -6 0
-2 -14 0
1 7 0
13 12 0
-12 14 0
-9 1 0
-7 3 0
14 -3 0
