c PROBLEM_015_080_48  vars=15  clausulas=80  k=2
p cnf 15 80
1 11 0
1 5 0
-1 10 0
-8 14 0
5 7 0
7 5 0
5 -15 0
-14 11 0
-2 1 0
10 4 0
9 -6 0
10 6 0
-14 -11 0
6 4 0
8 13 0
-9 1 0
-1 15 0
11 -5 0
5 1 0
7 11 0
14 -9 0
-3 4 0
5 7 0
-4 -10 0
-10 5 0
10 15 0
-4 -11 0
-14 -10 0
6 -10 0
-3 8 0
-9 -15 0
1 -3 0
-2 -11 0
-1 12 0
-1 -4 0
-12 -4 0
15 4 0
7 -14 0
-1 -6 0
14 8 0
-7 3 0
-11 -5 0
-4 -11 0
-6 3 0
-11 -3 0
1 -9 0
4 12 0
-12 -9 0
-8 14 0
-7 -2 0
9 -4 0
5 -13 0
-9 12 0
7 -5 0
-14 -11 0
2 -11 0
1 6 0
-5 -9 0
-8 1 0
1 -4 0
-4 1 0
1 6 0
13 -7 0
-4 11 0
-14 6 0
-6 -2 0
15 14 0
-1 -9 0
15 -11 0
-5 4 0
-8 -1 0
-9 15 0
-11 -8 0
-7 -9 0
10 -4 0
15 6 0
8 -6 0
-14 -1 0
11 -8 0
-1 2 0
