c PROBLEM_015_080_01  vars=15  clausulas=80  k=2
p cnf 15 80
7 -5 0
-13 -11 0
-13 -15 0
-9 -2 0
7 -13 0
4 -7 0
5 -4 0
15 2 0
6 9 0
2 -10 0
2 -8 0
-6 -14 0
-2 9 0
8 -11 0
15 6 0
8 -4 0
-5 13 0
5 -13 0
-12 -10 0
-5 2 0
14 11 0
11 4 0
-8 -2 0
10 7 0
-1 -5 0
2 6 0
9 7 0
9 -4 0
8 -7 0
-12 2 0
11 -14 0
12 10 0
5 9 0
11 -7 0
13 5 0
-8 13 0
-4 -10 0
-14 10 0
-8 -2 0
-9 -2 0
7 2 0
7 8 0
4 -10 0
1 5 0
12 -2 0
9 2 0
-2 -7 0
3 -14 0
5 -10 0
-11 14 0
9 -8 0
-1 -6 0
-13 -14 0
-3 -15 0
-2 -7 0
-4 9 0
-5 -3 0
-12 4 0
10 -8 0
13 7 0
12 15 0
5 -15 0
4 -7 0
12 13 0
9 -11 0
-2 5 0
-5 -14 0
3 5 0
-10 7 0
-2 -15 0
-10 -3 0
-11 -12 0
12 -3 0
-14 12 0
-2 7 0
10 9 0
12 10 0
-13 3 0
-11 14 0
1 2 0
