c PROBLEM_015_080_09  vars=15  clausulas=80  k=2
p cnf 15 80
5 -10 0
10 -14 0
6 -9 0
5 -1 0
-15 10 0
4 -8 0
-10 4 0
8 -6 0
6 1 0
4 -2 0
-12 13 0
-10 -2 0
-7 -15 0
2 -7 0
11 5 0
-5 8 0
-7 -14 0
-11 9 0
4 10 0
-7 14 0
10 -13 0
-9 -12 0
4 -11 0
-8 3 0
15 5 0
10 1 0
6 -12 0
-12 8 0
12 10 0
-1 12 0
-12 -5 0
-7 -14 0
-4 -10 0
7 13 0
-14 -2 0
-6 12 0
-5 -4 0
10 9 0
11 12 0
-1 -10 0
1 15 0
13 15 0
6 -11 0
11 14 0
-12 -1 0
13 15 0
-8 3 0
-12 8 0
4 -13 0
3 9 0
4 13 0
8 12 0
5 1 0
-3 -13 0
5 7 0
3 -15 0
-2 -14 0
1 15 0
-15 3 0
-3 -9 0
6 -9 0
8 -4 0
6 3 0
-9 6 0
15 7 0
-9 2 0
-7 -15 0
-9 4 0
6 7 0
-1 12 0
-9 -4 0
3 4 0
-6 12 0
3 13 0
13 12 0
-2 1 0
1 -2 0
-11 6 0
12 9 0
-5 -1 0
