c PROBLEM_015_080_45  vars=15  clausulas=80  k=2
p cnf 15 80
11 -14 0
12 -1 0
-7 -3 0
-1 -10 0
-7 13 0
3 -9 0
-14 -2 0
12 -4 0
4 8 0
9 -5 0
-5 8 0
-6 10 0
-7 -3 0
9 1 0
-5 1 0
-11 -13 0
11 4 0
-11 -6 0
-13 -10 0
-4 -13 0
2 4 0
-3 7 0
1 4 0
-11 2 0
-12 4 0
5 -14 0
-6 8 0
-1 13 0
-7 -14 0
6 2 0
-12 3 0
6 -5 0
2 -12 0
-8 -1 0
4 -1 0
-10 12 0
-12 11 0
-3 12 0
3 6 0
12 -9 0
3 -15 0
-5 -2 0
3 5 0
11 -9 0
-1 13 0
-2 -6 0
10 -3 0
-6 2 0
11 3 0
13 -9 0
15 -10 0
3 9 0
-10 -3 0
2 13 0
-14 1 0
6 -1 0
-6 10 0
-12 2 0
-2 -7 0
13 -8 0
3 6 0
-11 3 0
-4 -1 0
4 -12 0
11 -2 0
-7 -13 0
-1 -2 0
15 -7 0
-14 11 0
11 -2 0
-11 1 0
8 -1 0
-9 -12 0
13 -1 0
7 2 0
-7 -3 0
-8 11 0
1 -10 0
-12 -4 0
-7 -9 0
