c PROBLEM_015_080_39  vars=15  clausulas=80  k=2
p cnf 15 80
-14 -2 0
7 9 0
3 8 0
9 -15 0
-5 4 0
12 -11 0
9 13 0
-12 -11 0
15 -3 0
15 4 0
-15 3 0
11 13 0
-3 -9 0
-8 -6 0
-6 -3 0
12 11 0
6 -12 0
-10 11 0
10 6 0
8 -9 0
-12 -8 0
-7 -6 0
5 -14 0
9 -2 0
-3 -4 0
-12 -6 0
14 12 0
-10 11 0
-1 -9 0
7 -5 0
-14 5 0
-14 7 0
-13 -9 0
8 2 0
-13 -4 0
3 6 0
-4 -10 0
2 -5 0
11 7 0
-11 -2 0
8 6 0
-10 -12 0
5 -3 0
1 9 0
6 -8 0
-9 -13 0
-4 12 0
-9 13 0
9 4 0
2 15 0
7 -1 0
-11 -6 0
12 -15 0
6 1 0
-12 -8 0
3 9 0
4 -12 0
6 -10 0
-10 7 0
10 14 0
-14 -8 0
-3 -7 0
-2 13 0
4 -6 0
-10 7 0
5 11 0
2 10 0
5 13 0
1 13 0
-7 -10 0
10 7 0
-5 7 0
-5 3 0
9 7 0
1 12 0
-10 15 0
-6 -9 0
6 5 0
-13 1 0
4 -15 0
