c PROBLEM_015_080_08  vars=15  clausulas=80  k=2
p cnf 15 80
8 4 0
2 -8 0
-14 15 0
-13 -1 0
3 8 0
15 7 0
8 -12 0
-10 -13 0
7 -5 0
4 -6 0
-2 -1 0
-5 -11 0
6 9 0
-3 8 0
-5 11 0
-13 6 0
13 15 0
10 -8 0
-3 11 0
-12 9 0
-2 12 0
-2 7 0
-9 -12 0
-5 -11 0
-9 1 0
15 -12 0
7 -3 0
-6 -11 0
13 3 0
11 8 0
-5 -7 0
15 -10 0
10 -2 0
14 -6 0
12 11 0
5 8 0
8 -14 0
-5 1 0
-4 5 0
-2 7 0
-5 15 0
-7 -14 0
1 8 0
15 -5 0
-6 14 0
-4 -8 0
-11 -8 0
12 8 0
9 7 0
8 -2 0
-6 9 0
12 14 0
-4 10 0
3 -14 0
-1 -12 0
4 9 0
-12 -13 0
1 13 0
7 12 0
-5 14 0
-14 15 0
4 3 0
-7 -3 0
9 -1 0
4 -9 0
10 -14 0
-13 -14 0
7 -13 0
-8 -2 0
-15 -4 0
10 7 0
-6 -15 0
-13 -7 0
13 -6 0
-10 -4 0
14 -5 0
15 7 0
-13 -10 0
4 5 0
-15 12 0
