c PROBLEM_015_080_05  vars=15  clausulas=80  k=2
p cnf 15 80
7 -9 0
-15 -2 0
13 -2 0
15 -7 0
-11 -13 0
-9 -12 0
-4 12 0
-9 7 0
-13 -11 0
12 -3 0
-11 14 0
10 4 0
-11 -15 0
-2 14 0
10 14 0
7 -6 0
10 14 0
-8 -14 0
-9 -11 0
14 6 0
-2 1 0
1 8 0
-9 15 0
1 14 0
-14 -3 0
14 -4 0
-11 12 0
-7 -5 0
8 1 0
9 12 0
4 -8 0
-15 4 0
8 -11 0
6 -13 0
-5 2 0
-15 -12 0
-5 9 0
-5 -1 0
-10 4 0
-9 -1 0
-2 -12 0
-1 -2 0
-3 -6 0
-14 -12 0
1 5 0
12 11 0
-9 -15 0
5 1 0
11 -5 0
-4 3 0
-11 -13 0
15 9 0
10 -15 0
12 10 0
-13 -3 0
10 6 0
3 15 0
4 -6 0
15 -7 0
1 -11 0
14 9 0
14 13 0
-2 3 0
-12 7 0
-15 13 0
-2 -9 0
2 15 0
13 2 0
10 1 0
1 -9 0
7 -3 0
14 -13 0
1 -6 0
-10 -3 0
1 9 0
4 -14 0
14 12 0
1 11 0
-2 -11 0
-14 3 0
