c PROBLEM_015_080_33  vars=15  clausulas=80  k=2
p cnf 15 80
3 9 0
3 -13 0
2 12 0
-11 -9 0
-2 6 0
14 3 0
-13 6 0
-5 11 0
-13 -9 0
-1 -10 0
12 10 0
12 -11 0
2 8 0
-6 15 0
-2 3 0
-11 1 0
-4 3 0
6 13 0
7 -6 0
-6 -2 0
5 6 0
8 -10 0
3 -6 0
2 8 0
-9 -5 0
-12 -6 0
-12 4 0
-12 2 0
11 12 0
9 11 0
2 11 0
11 -13 0
-5 -15 0
5 11 0
-7 9 0
13 12 0
10 -1 0
2 14 0
-6 -3 0
13 -10 0
-15 -7 0
7 -8 0
2 1 0
-15 7 0
10 1 0
13 -4 0
-2 5 0
-13 2 0
13 8 0
-15 6 0
-5 -10 0
-13 2 0
-1 -9 0
-3 -12 0
14 -13 0
10 15 0
-14 5 0
11 -12 0
4 10 0
2 -5 0
-3 -2 0
-13 -12 0
-9 12 0
4 -9 0
6 2 0
15 7 0
-9 6 0
-10 -1 0
5 2 0
-12 -9 0
6 4 0
3 10 0
-6 -10 0
-14 4 0
2 1 0
-9 -10 0
-5 -10 0
15 -4 0
-14 10 0
-9 8 0
