c PROBLEM_015_080_03  vars=15  clausulas=80  k=2
p cnf 15 80
-10 12 0
2 -12 0
-13 -14 0
-10 -15 0
-14 -5 0
9 1 0
15 -6 0
9 -10 0
-8 9 0
-15 -11 0
-1 -8 0
12 1 0
1 15 0
10 -8 0
9 -11 0
12 -1 0
2 9 0
-14 11 0
-2 13 0
10 -9 0
-9 8 0
4 11 0
-9 -11 0
12 -5 0
-9 -6 0
3 6 0
4 15 0
-1 -10 0
9 -8 0
9 11 0
14 -2 0
3 2 0
-11 -6 0
8 11 0
15 8 0
2 -11 0
-5 -3 0
-14 8 0
-6 -8 0
-3 -15 0
-7 -14 0
2 5 0
13 -12 0
15 7 0
4 10 0
-2 -13 0
13 -5 0
-1 -13 0
6 -15 0
12 -2 0
9 4 0
9 11 0
8 -11 0
-12 14 0
11 -7 0
-7 8 0
8 9 0
-4 7 0
7 -5 0
-15 -7 0
13 -3 0
10 4 0
-10 -11 0
10 12 0
-13 12 0
-10 6 0
8 13 0
-2 8 0
-8 -3 0
-1 -2 0
-12 5 0
-6 5 0
2 10 0
-15 -14 0
-11 3 0
-15 14 0
-3 -4 0
1 -7 0
7 11 0
-1 -10 0
