c PROBLEM_015_080_38  vars=15  clausulas=80  k=2
p cnf 15 80
4 10 0
-12 10 0
-13 -6 0
-11 -10 0
-13 9 0
-8 -14 0
-3 -8 0
-12 -15 0
-11 -2 0
-6 4 0
-1 9 0
-6 4 0
-8 -12 0
12 -4 0
-12 -1 0
-10 5 0
-11 -3 0
-1 -11 0
-5 -7 0
-14 11 0
-2 -9 0
-3 -11 0
-11 8 0
7 -12 0
-10 -8 0
-4 2 0
3 -6 0
-14 -3 0
7 10 0
3 11 0
-5 2 0
-11 -4 0
-5 -1 0
-11 8 0
3 -10 0
-3 8 0
-6 15 0
9 -5 0
-11 -12 0
15 4 0
11 -8 0
11 7 0
7 -1 0
-2 -15 0
15 13 0
-3 -14 0
1 2 0
2 3 0
2 12 0
-1 6 0
10 14 0
-1 14 0
-9 12 0
1 5 0
-4 -5 0
7 8 0
11 8 0
15 -13 0
-13 -15 0
7 2 0
-12 14 0
-6 -15 0
-9 11 0
4 13 0
15 13 0
5 -7 0
5 -11 0
7 5 0
1 -7 0
12 -1 0
11 -2 0
3 -5 0
9 -11 0
-6 -14 0
-5 1 0
4 -13 0
-5 -2 0
14 4 0
13 -8 0
15 -2 0
