c PROBLEM_015_080_31  vars=15  clausulas=80  k=2
p cnf 15 80
13 6 0
13 -11 0
11 -3 0
11 13 0
-13 6 0
15 10 0
15 5 0
-10 4 0
3 -9 0
10 5 0
-4 2 0
-14 -15 0
1 5 0
6 -2 0
7 -6 0
-3 6 0
-8 -14 0
1 -4 0
-5 -15 0
3 9 0
6 -11 0
6 5 0
-1 12 0
-13 9 0
-12 -11 0
5 -14 0
2 -11 0
-13 -3 0
-15 4 0
-4 -3 0
-14 6 0
4 -7 0
7 8 0
-5 12 0
-6 -5 0
-6 11 0
-8 -15 0
14 5 0
-2 -3 0
2 11 0
13 7 0
-4 9 0
12 9 0
-3 -12 0
3 14 0
-7 -12 0
10 8 0
-11 -8 0
8 1 0
-7 11 0
-12 -6 0
6 -4 0
-6 7 0
-6 -11 0
13 14 0
-15 -10 0
12 -10 0
9 3 0
-9 -13 0
9 13 0
1 -11 0
-2 5 0
10 15 0
6 -11 0
-8 -15 0
-4 12 0
2 13 0
-5 14 0
-1 6 0
9 7 0
5 -1 0
-1 -15 0
-6 -5 0
15 -7 0
-15 -6 0
1 -8 0
12 -14 0
-7 -8 0
7 9 0
7 -5 0
