c PROBLEM_015_080_21  vars=15  clausulas=80  k=2
p cnf 15 80
1 -2 0
3 -15 0
-10 3 0
2 -13 0
-13 4 0
-13 8 0
13 -6 0
-14 11 0
-15 3 0
7 15 0
4 8 0
9 -11 0
-11 15 0
8 13 0
11 -10 0
13 4 0
-8 10 0
14 -11 0
-11 -7 0
6 9 0
8 5 0
4 -14 0
10 9 0
8 13 0
-2 3 0
-7 -9 0
2 13 0
6 -7 0
-3 -4 0
-9 7 0
-12 13 0
3 -4 0
-8 -1 0
5 -15 0
5 -7 0
10 12 0
-8 -11 0
-13 2 0
7 -15 0
9 -4 0
14 1 0
-13 7 0
-15 -13 0
14 8 0
-7 5 0
-2 -14 0
5 13 0
13 -1 0
-5 13 0
-13 10 0
-6 9 0
-5 15 0
-5 -1 0
-6 8 0
12 11 0
-14 -6 0
-8 6 0
-12 11 0
-6 -7 0
13 -15 0
6 2 0
-5 2 0
-14 -1 0
4 -1 0
-1 -14 0
-1 -13 0
2 8 0
-15 -11 0
2 -12 0
-14 13 0
2 -1 0
-8 2 0
1 -9 0
-6 -1 0
-12 10 0
-11 -15 0
-7 2 0
-3 -13 0
9 -11 0
-7 12 0
