c PROBLEM_035_060_41  vars=35  clausulas=60  k=2
p cnf 35 60
25 24 0
-11 23 0
-29 -4 0
17 -31 0
-6 2 0
5 -8 0
-21 16 0
-30 29 0
-2 -4 0
-19 -17 0
27 29 0
-9 16 0
10 -15 0
-22 -33 0
33 -10 0
-23 24 0
11 -31 0
-14 -30 0
-3 7 0
19 31 0
20 21 0
-6 34 0
-33 -32 0
-7 23 0
-13 29 0
11 -21 0
-31 23 0
2 10 0
-32 -35 0
14 32 0
9 -33 0
-7 33 0
32 -3 0
8 34 0
-14 32 0
-18 -34 0
-27 -18 0
16 -4 0
-22 10 0
30 1 0
16 34 0
-30 -23 0
27 10 0
31 -11 0
11 27 0
9 -32 0
13 -25 0
-21 -26 0
-23 13 0
-12 -26 0
-17 -1 0
-8 18 0
22 15 0
-19 -25 0
-21 -9 0
17 -5 0
1 -14 0
-33 -7 0
-34 -5 0
28 24 0
