c PROBLEM_035_060_49  vars=35  clausulas=60  k=2
p cnf 35 60
-29 -19 0
30 -31 0
18 22 0
-21 -28 0
27 15 0
11 -25 0
33 -3 0
26 -33 0
19 -1 0
-12 -27 0
24 35 0
-10 -7 0
-18 -7 0
9 27 0
23 12 0
15 -22 0
-21 -18 0
12 2 0
-26 -12 0
-27 16 0
23 24 0
-13 -35 0
16 30 0
16 11 0
26 35 0
-14 -6 0
18 2 0
-19 20 0
-33 -1 0
-6 28 0
-18 -1 0
-5 -16 0
-14 24 0
17 15 0
32 -28 0
26 10 0
-34 12 0
-8 35 0
-26 17 0
14 -35 0
13 -10 0
20 33 0
-32 -10 0
9 2 0
25 -22 0
-24 15 0
19 -9 0
-14 -27 0
27 -9 0
15 -3 0
-25 13 0
15 19 0
-32 27 0
34 10 0
-7 -23 0
18 3 0
-10 -13 0
-20 -4 0
1 -8 0
-27 14 0
