c PROBLEM_035_060_37  vars=35  clausulas=60  k=2
p cnf 35 60
-4 6 0
-12 19 0
-4 -13 0
-5 6 0
8 -11 0
-23 -35 0
-4 -13 0
4 -17 0
-17 24 0
-8 27 0
-24 -28 0
-14 -11 0
-6 -20 0
29 31 0
-6 -16 0
-33 -24 0
-7 -28 0
4 -10 0
-8 -9 0
-9 -32 0
12 10 0
18 14 0
30 -4 0
8 -16 0
32 5 0
11 -25 0
-18 -3 0
-7 -6 0
-24 -15 0
-9 2 0
10 -9 0
-16 -10 0
-12 -31 0
-11 35 0
34 27 0
32 34 0
-3 -34 0
-15 -5 0
11 -30 0
-27 31 0
9 15 0
30 -24 0
31 -23 0
33 -18 0
20 19 0
11 -15 0
22 -3 0
-21 -12 0
26 -25 0
17 19 0
-1 -28 0
30 5 0
34 -27 0
18 -13 0
-27 28 0
35 -19 0
25 -30 0
-11 -8 0
-13 -15 0
-31 -23 0
