c PROBLEM_035_060_34  vars=35  clausulas=60  k=2
p cnf 35 60
-8 -28 0
-33 -13 0
-12 -24 0
-20 -2 0
-27 -3 0
-16 -2 0
7 31 0
-16 4 0
28 13 0
-22 -20 0
-21 7 0
27 2 0
11 14 0
-15 -18 0
-26 -1 0
28 -3 0
1 -12 0
-27 -30 0
-7 22 0
-22 -12 0
19 35 0
-31 -27 0
1 -14 0
7 32 0
26 -29 0
-31 -9 0
-25 34 0
-32 -26 0
4 26 0
-5 7 0
13 -17 0
30 -12 0
-4 -13 0
16 -12 0
4 31 0
24 -17 0
-3 -15 0
11 -29 0
27 -16 0
-10 -33 0
-20 -25 0
-26 9 0
8 -34 0
6 35 0
-15 7 0
-27 -34 0
-33 -23 0
29 18 0
-32 -5 0
19 6 0
-6 34 0
32 -15 0
17 14 0
20 -8 0
-6 -24 0
18 -10 0
-25 30 0
-2 16 0
-12 -30 0
9 -21 0
