c PROBLEM_035_060_11  vars=35  clausulas=60  k=2
p cnf 35 60
20 19 0
13 -11 0
-25 13 0
-29 12 0
4 33 0
6 7 0
-9 -24 0
-29 -15 0
-7 -32 0
25 15 0
-12 13 0
-8 -9 0
4 -16 0
-12 29 0
8 -20 0
-17 -3 0
-30 -19 0
-1 -6 0
-21 -6 0
11 -24 0
13 -22 0
9 35 0
16 8 0
23 18 0
-22 10 0
-2 1 0
-11 -24 0
-9 -28 0
-34 4 0
-18 -24 0
-33 13 0
-8 16 0
-26 15 0
-31 15 0
-28 34 0
-34 31 0
7 -5 0
-1 32 0
-22 32 0
-35 9 0
-2 17 0
2 -16 0
-18 -23 0
-25 -10 0
10 -1 0
23 26 0
-27 -30 0
19 -8 0
-9 5 0
-5 -33 0
-18 22 0
-7 17 0
-13 22 0
-26 -11 0
8 -27 0
27 -28 0
-2 -33 0
-14 -10 0
27 -34 0
20 18 0
