c PROBLEM_035_060_30  vars=35  clausulas=60  k=2
p cnf 35 60
12 9 0
33 6 0
20 6 0
-7 -23 0
-20 -22 0
11 -19 0
8 25 0
-5 30 0
9 23 0
-7 -9 0
1 21 0
34 -18 0
-4 -28 0
29 34 0
-27 11 0
-1 34 0
-24 31 0
35 -27 0
-30 -7 0
-26 -11 0
-29 -1 0
-18 1 0
-16 -13 0
-19 -18 0
-15 -17 0
18 -22 0
4 14 0
21 -34 0
20 33 0
3 21 0
3 -4 0
-5 30 0
-30 -29 0
14 18 0
-7 33 0
2 -31 0
-23 -30 0
5 -14 0
-21 -2 0
-3 29 0
-1 25 0
-32 6 0
21 24 0
-26 28 0
5 -2 0
-1 -25 0
-33 -28 0
-31 -12 0
25 -2 0
-35 -26 0
27 8 0
16 2 0
33 17 0
-6 -32 0
16 -2 0
3 -13 0
19 9 0
12 -19 0
-10 -15 0
16 10 0
