c PROBLEM_035_060_43  vars=35  clausulas=60  k=2
p cnf 35 60
16 -9 0
-31 7 0
-31 28 0
18 -28 0
33 -26 0
8 -16 0
31 35 0
-4 12 0
32 -15 0
-1 15 0
7 -8 0
22 33 0
13 -28 0
2 -21 0
-9 3 0
-16 -33 0
-10 20 0
15 17 0
34 12 0
-14 -1 0
-5 -16 0
-8 -1 0
1 -30 0
-34 -6 0
-32 -19 0
2 32 0
-10 -8 0
-35 -25 0
35 2 0
-9 -4 0
32 -1 0
12 23 0
-21 19 0
-29 12 0
14 22 0
25 26 0
8 26 0
-23 27 0
10 27 0
-23 -3 0
-21 11 0
-9 -24 0
-24 31 0
19 -20 0
-2 35 0
5 14 0
24 -10 0
29 -34 0
27 -16 0
-20 13 0
27 34 0
-10 -1 0
-26 17 0
13 -4 0
-9 -33 0
18 25 0
-17 -10 0
29 8 0
-11 -34 0
35 -13 0
