c PROBLEM_035_060_17  vars=35  clausulas=60  k=2
p cnf 35 60
-20 24 0
32 9 0
-30 10 0
-32 21 0
-33 8 0
28 -1 0
3 -15 0
13 11 0
10 8 0
-2 22 0
-19 35 0
-29 -2 0
-21 -5 0
21 -27 0
-3 21 0
1 -22 0
34 -31 0
26 20 0
-18 9 0
29 -11 0
6 5 0
22 3 0
-18 -5 0
-22 24 0
12 7 0
4 18 0
19 23 0
27 -21 0
8 33 0
13 31 0
12 9 0
29 -7 0
-2 -25 0
29 -25 0
29 -28 0
31 -17 0
-33 -13 0
-21 18 0
26 -3 0
-28 24 0
-5 26 0
-20 30 0
5 23 0
-27 26 0
17 -24 0
-10 35 0
-12 25 0
8 14 0
13 15 0
-25 -35 0
16 -7 0
-16 11 0
16 -32 0
-14 -30 0
-28 12 0
-3 4 0
12 -13 0
23 -21 0
-34 29 0
29 28 0
