c PROBLEM_035_060_35  vars=35  clausulas=60  k=2
p cnf 35 60
-17 33 0
-10 -23 0
26 23 0
-33 21 0
-16 -18 0
11 26 0
33 14 0
-20 12 0
-31 -2 0
35 -31 0
20 -18 0
-20 14 0
-6 -22 0
-3 11 0
1 32 0
-16 -7 0
-35 -5 0
12 11 0
4 -29 0
-30 -17 0
-29 -6 0
-13 -14 0
6 -4 0
-3 -20 0
-19 -20 0
14 -25 0
3 -1 0
-15 -33 0
22 -6 0
22 24 0
-12 -22 0
11 28 0
-20 -31 0
21 -7 0
-34 16 0
-9 8 0
20 32 0
-6 -14 0
30 13 0
3 -12 0
-22 35 0
13 -25 0
-1 -5 0
-15 27 0
4 -18 0
24 -13 0
-1 17 0
8 -6 0
35 -19 0
23 7 0
-28 -21 0
3 -19 0
-25 -33 0
-6 -1 0
31 1 0
-9 33 0
17 21 0
23 2 0
27 -7 0
17 -6 0
