c PROBLEM_035_060_44  vars=35  clausulas=60  k=2
p cnf 35 60
-19 -30 0
33 -26 0
15 1 0
-24 33 0
3 34 0
-31 25 0
35 31 0
-32 17 0
-13 -27 0
-11 12 0
-7 4 0
24 8 0
-1 10 0
27 31 0
-11 33 0
-9 -2 0
-34 24 0
-22 -5 0
8 11 0
-4 -25 0
-15 -30 0
18 35 0
-14 29 0
1 -7 0
-25 -27 0
34 -14 0
-24 -23 0
-7 33 0
19 18 0
-27 -33 0
19 -18 0
-10 -25 0
-26 5 0
-7 -23 0
-31 2 0
9 -35 0
22 26 0
9 25 0
-6 -25 0
5 -26 0
12 20 0
23 20 0
13 -16 0
7 11 0
-8 13 0
-31 -27 0
-4 -2 0
4 6 0
-20 6 0
-16 -10 0
-16 17 0
-19 -24 0
34 32 0
17 7 0
24 -33 0
-15 29 0
-28 21 0
-23 33 0
22 -30 0
-29 -25 0
