c PROBLEM_035_060_31  vars=35  clausulas=60  k=2
p cnf 35 60
15 -14 0
31 12 0
33 22 0
27 19 0
-21 -7 0
30 24 0
-28 -1 0
21 15 0
-9 26 0
19 1 0
-11 20 0
4 -1 0
-16 -21 0
-27 -28 0
-23 32 0
-22 -24 0
13 31 0
-32 31 0
11 15 0
-19 21 0
25 -29 0
27 21 0
-11 10 0
-2 24 0
9 -4 0
17 -13 0
-23 22 0
-28 -11 0
-13 -4 0
35 -8 0
-21 8 0
-17 11 0
-24 9 0
-14 30 0
-35 19 0
-25 -33 0
9 19 0
-10 26 0
-5 -19 0
-25 -26 0
33 -20 0
21 18 0
8 1 0
33 -8 0
-32 -23 0
-2 27 0
-13 -24 0
35 18 0
7 -29 0
-32 19 0
-25 24 0
27 -15 0
-14 -9 0
6 -26 0
14 -6 0
3 -12 0
-10 -4 0
-26 21 0
5 14 0
-34 -12 0
