c PROBLEM_035_060_10  vars=35  clausulas=60  k=2
p cnf 35 60
6 2 0
29 -14 0
-33 -34 0
34 22 0
2 -25 0
16 25 0
18 -26 0
-21 1 0
14 -21 0
-29 26 0
23 -12 0
13 -11 0
-29 -19 0
-8 -27 0
-9 -28 0
-17 -27 0
-35 -11 0
-5 33 0
18 17 0
-17 8 0
31 16 0
-3 9 0
26 -29 0
20 -23 0
-8 -7 0
14 12 0
-9 -26 0
20 15 0
-19 -9 0
-13 33 0
-4 10 0
1 15 0
31 24 0
25 19 0
11 10 0
2 12 0
6 28 0
-19 -3 0
2 -15 0
11 4 0
-21 12 0
-22 4 0
-2 3 0
11 1 0
-14 22 0
23 -3 0
-21 4 0
-28 -24 0
-9 -11 0
28 32 0
27 28 0
-10 -30 0
25 -12 0
16 -3 0
35 14 0
-3 -10 0
4 -3 0
1 32 0
-24 12 0
19 -20 0
