c PROBLEM_035_060_05  vars=35  clausulas=60  k=2
p cnf 35 60
-12 -7 0
-12 30 0
-12 -18 0
19 -31 0
-31 -10 0
-23 29 0
-3 6 0
14 -19 0
22 1 0
-27 -21 0
22 -20 0
9 -16 0
33 -11 0
22 -1 0
-1 -10 0
-21 -30 0
-34 5 0
-20 4 0
28 -5 0
-24 -19 0
21 -17 0
-10 9 0
23 -21 0
-20 -7 0
-26 -31 0
3 31 0
5 2 0
20 10 0
30 17 0
15 20 0
8 -3 0
-10 -30 0
-31 19 0
-32 -10 0
-12 -24 0
-28 -24 0
18 -4 0
23 22 0
11 -26 0
13 16 0
4 2 0
-30 17 0
1 -7 0
-16 -29 0
-24 -12 0
23 7 0
19 34 0
-15 -11 0
17 7 0
-35 -26 0
-13 -27 0
-22 35 0
16 34 0
17 -27 0
32 -25 0
28 20 0
-10 4 0
20 -8 0
18 -6 0
-21 9 0
