c PROBLEM_035_060_19  vars=35  clausulas=60  k=2
p cnf 35 60
29 -10 0
11 31 0
30 4 0
-11 22 0
21 -17 0
12 27 0
-27 30 0
-1 32 0
-21 24 0
20 -10 0
22 -16 0
-6 8 0
6 -31 0
-34 27 0
-25 -29 0
-32 6 0
-17 29 0
-29 -18 0
6 -26 0
-24 -30 0
-22 11 0
35 -8 0
-25 15 0
16 -23 0
4 8 0
-13 23 0
-33 -30 0
-17 -18 0
5 -31 0
-21 28 0
14 9 0
-1 -5 0
-20 -9 0
13 -6 0
-23 -3 0
23 17 0
-27 -35 0
-26 -6 0
-31 29 0
8 -32 0
24 30 0
-34 -9 0
25 14 0
21 -2 0
23 25 0
-14 -35 0
28 -26 0
18 -2 0
-34 -3 0
-12 -14 0
-10 -35 0
34 -27 0
35 -19 0
13 -12 0
26 -14 0
-21 -28 0
14 15 0
8 -4 0
-23 -7 0
14 18 0
