c PROBLEM_035_060_13  vars=35  clausulas=60  k=2
p cnf 35 60
-17 -5 0
-3 14 0
-22 28 0
-6 -29 0
5 32 0
-34 -35 0
-31 5 0
-27 10 0
-35 14 0
-20 -18 0
31 -23 0
29 -35 0
-21 30 0
7 10 0
-9 18 0
6 7 0
-13 -10 0
-26 6 0
16 -21 0
33 31 0
-8 -13 0
35 -26 0
11 5 0
5 23 0
28 -10 0
-20 -1 0
30 34 0
-22 -19 0
-18 -25 0
11 -21 0
-31 -18 0
-6 -35 0
-27 10 0
-2 -17 0
-28 -7 0
-18 -15 0
33 -30 0
26 34 0
-35 -34 0
-27 -11 0
32 25 0
-23 10 0
-14 2 0
19 6 0
33 9 0
-3 -24 0
19 20 0
-28 -9 0
8 -14 0
24 -14 0
12 -1 0
8 -24 0
3 30 0
-15 -34 0
-4 28 0
13 17 0
-17 -11 0
32 -11 0
-19 -21 0
1 9 0
