c PROBLEM_035_060_06  vars=35  clausulas=60  k=2
p cnf 35 60
-31 29 0
35 27 0
-20 -24 0
15 21 0
17 -15 0
21 16 0
-21 25 0
-10 20 0
2 -26 0
-18 24 0
-8 30 0
-1 -18 0
-35 6 0
-16 28 0
-26 8 0
-23 -10 0
-23 -31 0
16 21 0
13 -29 0
32 -26 0
5 28 0
-25 18 0
31 -33 0
22 -26 0
16 1 0
12 -8 0
-22 19 0
-19 2 0
-10 33 0
35 19 0
34 -25 0
-18 5 0
13 34 0
28 14 0
-5 -13 0
-1 -29 0
-19 35 0
-25 -30 0
-20 15 0
-1 17 0
11 -2 0
26 -11 0
-19 -33 0
10 31 0
-3 22 0
15 -25 0
19 20 0
-7 -5 0
-6 -21 0
-26 32 0
-20 -23 0
-9 3 0
-29 -24 0
-8 6 0
-33 -6 0
-21 -24 0
10 25 0
4 30 0
35 -32 0
-10 4 0
