c PROBLEM_035_060_39  vars=35  clausulas=60  k=2
p cnf 35 60
-5 14 0
8 21 0
2 -23 0
9 -17 0
-20 -34 0
-24 8 0
3 26 0
31 23 0
-6 17 0
-12 14 0
21 26 0
3 -4 0
8 -1 0
-16 -29 0
30 -16 0
1 -5 0
15 29 0
-19 4 0
-24 -13 0
24 -12 0
28 -22 0
-25 -9 0
-27 9 0
32 -33 0
-2 20 0
-19 -15 0
18 27 0
25 1 0
-29 13 0
-17 29 0
14 6 0
19 24 0
-7 -2 0
-25 2 0
16 6 0
-35 -19 0
18 -26 0
10 -31 0
13 29 0
21 5 0
25 -2 0
-12 28 0
-18 -3 0
2 30 0
16 19 0
-29 -34 0
-16 35 0
11 -15 0
-14 15 0
18 28 0
27 -16 0
29 33 0
-10 4 0
-32 17 0
-24 10 0
-18 -5 0
-18 1 0
-13 8 0
-29 34 0
-13 -21 0
