c PROBLEM_035_060_32  vars=35  clausulas=60  k=2
p cnf 35 60
-15 11 0
-10 -24 0
9 25 0
-33 8 0
31 35 0
13 -19 0
-24 -12 0
31 -32 0
24 18 0
34 8 0
20 34 0
-35 21 0
-18 24 0
33 -27 0
-16 17 0
-30 -2 0
1 3 0
33 12 0
8 26 0
22 29 0
-34 -32 0
5 27 0
-30 11 0
-13 34 0
31 22 0
-18 -14 0
-27 -4 0
-13 -17 0
22 11 0
-23 -4 0
-14 6 0
30 34 0
33 6 0
15 28 0
-19 7 0
-17 11 0
2 -24 0
27 -9 0
24 4 0
12 19 0
16 34 0
20 7 0
1 -32 0
2 -22 0
-15 3 0
-19 -2 0
-2 28 0
-1 14 0
17 -29 0
5 18 0
-8 -23 0
12 26 0
-17 -13 0
-23 20 0
19 28 0
-20 -12 0
1 -9 0
-29 13 0
10 -31 0
-13 9 0
