c PROBLEM_035_060_23  vars=35  clausulas=60  k=2
p cnf 35 60
-16 -4 0
-7 -26 0
8 -10 0
24 25 0
10 -32 0
-4 -28 0
31 -34 0
-32 31 0
-18 10 0
-31 9 0
-27 -35 0
-1 -21 0
7 5 0
-18 22 0
25 -29 0
-14 26 0
2 -17 0
-4 2 0
-12 -15 0
-18 -16 0
3 -21 0
-22 -8 0
-26 32 0
-7 4 0
-6 -1 0
-7 -5 0
-5 -8 0
-7 1 0
-18 -25 0
-10 33 0
-23 -29 0
-33 -12 0
-19 2 0
-18 -9 0
2 33 0
-16 9 0
-24 1 0
11 -35 0
9 -28 0
22 -35 0
6 17 0
-6 22 0
-22 9 0
-5 -4 0
-11 -26 0
24 1 0
19 -6 0
-25 21 0
-33 -8 0
33 7 0
-14 -13 0
18 20 0
-7 28 0
7 1 0
-20 -18 0
-30 -34 0
-35 3 0
19 7 0
-12 -23 0
-28 -9 0
