c PROBLEM_035_060_25  vars=35  clausulas=60  k=2
p cnf 35 60
-28 33 0
-5 -9 0
-16 18 0
18 -30 0
30 -25 0
17 35 0
12 -19 0
-25 2 0
-13 33 0
24 -16 0
31 -9 0
6 21 0
3 -32 0
-19 -4 0
-35 17 0
-6 -18 0
-19 -5 0
15 9 0
-14 20 0
22 -20 0
-10 2 0
-10 -27 0
8 14 0
9 4 0
15 6 0
-24 3 0
30 1 0
35 -32 0
-17 -12 0
4 -21 0
-9 2 0
-21 -1 0
11 24 0
14 -31 0
12 27 0
-13 28 0
-24 9 0
-23 -35 0
29 18 0
-34 -16 0
8 -32 0
-9 -6 0
-27 23 0
34 -24 0
-1 30 0
-13 11 0
-7 -27 0
-20 -1 0
-16 -26 0
16 -25 0
-29 17 0
35 -16 0
19 27 0
14 -2 0
-26 28 0
30 12 0
-30 4 0
-33 29 0
8 -7 0
-13 -6 0
