c PROBLEM_035_060_16  vars=35  clausulas=60  k=2
p cnf 35 60
-35 -31 0
22 15 0
-35 4 0
-17 26 0
-5 -35 0
-33 -28 0
-18 -7 0
-12 31 0
-30 3 0
-28 -3 0
20 11 0
19 -31 0
-14 -29 0
23 15 0
-31 26 0
3 -7 0
-27 -24 0
-13 -7 0
-8 14 0
21 17 0
-2 24 0
4 -18 0
19 5 0
16 3 0
-25 -10 0
27 -17 0
-9 -24 0
1 -19 0
10 24 0
8 15 0
6 21 0
1 23 0
25 24 0
-20 12 0
23 -7 0
15 -4 0
-12 -9 0
23 22 0
-10 16 0
33 1 0
23 -19 0
15 -2 0
-11 -27 0
28 30 0
-34 -9 0
13 32 0
21 19 0
-3 -24 0
7 26 0
-25 -10 0
19 6 0
-32 -7 0
-31 26 0
-27 -25 0
-33 34 0
-25 21 0
22 29 0
-23 3 0
32 -30 0
-23 16 0
