c PROBLEM_035_060_33  vars=35  clausulas=60  k=2
p cnf 35 60
-15 17 0
9 23 0
4 -16 0
4 20 0
-33 3 0
16 34 0
-33 8 0
-28 34 0
29 25 0
12 7 0
-33 -10 0
-5 8 0
-29 24 0
21 13 0
-32 26 0
-27 -11 0
-6 -7 0
-12 7 0
35 -23 0
35 19 0
-23 20 0
18 -31 0
26 15 0
14 16 0
-10 -7 0
22 21 0
-1 14 0
-20 -24 0
-19 -30 0
-15 24 0
26 17 0
-23 -6 0
-26 -14 0
18 8 0
2 -21 0
15 20 0
-17 -24 0
-5 6 0
-1 15 0
26 -6 0
4 14 0
7 31 0
-4 27 0
22 -8 0
23 -2 0
2 7 0
-13 -15 0
25 -4 0
-7 9 0
-31 -1 0
-22 12 0
-25 -11 0
-26 -17 0
-20 33 0
7 1 0
25 -28 0
-14 -18 0
-27 17 0
-34 -15 0
-18 11 0
