c PROBLEM_040_090_21  vars=40  clausulas=90  k=2
p cnf 40 90
-33 2 0
-19 -9 0
5 33 0
15 21 0
-22 4 0
-17 34 0
7 -9 0
-24 -34 0
31 18 0
31 -23 0
40 18 0
-29 2 0
-35 33 0
-6 -10 0
36 -34 0
1 30 0
37 36 0
8 -28 0
28 2 0
-3 -36 0
33 -9 0
19 -4 0
-40 -11 0
-8 20 0
1 23 0
3 20 0
2 39 0
-11 19 0
-15 -32 0
-4 25 0
-36 25 0
34 -22 0
32 21 0
36 18 0
-27 26 0
10 29 0
-33 12 0
-26 8 0
12 18 0
-5 23 0
5 -20 0
21 -1 0
-11 32 0
13 -37 0
-28 -26 0
18 -8 0
28 -27 0
-40 5 0
2 -13 0
15 4 0
-36 -3 0
-31 4 0
-1 -13 0
-13 6 0
27 20 0
-14 6 0
-9 -23 0
-39 37 0
-16 -5 0
32 -2 0
-38 -40 0
10 -1 0
-38 -12 0
27 -39 0
27 14 0
40 37 0
-38 -26 0
-18 3 0
-15 14 0
-29 37 0
-18 -15 0
-17 11 0
-6 -26 0
-21 -22 0
8 -29 0
-21 38 0
21 10 0
-18 17 0
5 -1 0
39 -16 0
9 28 0
31 28 0
-40 9 0
-39 -3 0
30 -39 0
-8 -13 0
-11 -12 0
15 -29 0
-33 3 0
20 1 0
