c PROBLEM_040_090_37  vars=40  clausulas=90  k=2
p cnf 40 90
-8 -6 0
-11 8 0
4 24 0
39 -15 0
-35 10 0
-19 22 0
39 -32 0
-8 -35 0
-20 -36 0
7 31 0
24 -21 0
20 -17 0
39 -34 0
26 24 0
-11 27 0
-31 37 0
19 11 0
-29 20 0
35 18 0
12 25 0
-30 -22 0
38 -14 0
16 -1 0
28 16 0
38 29 0
17 -24 0
-39 23 0
7 33 0
6 -13 0
-13 18 0
-31 -16 0
16 -20 0
16 -18 0
33 -19 0
26 15 0
31 -24 0
-4 -33 0
-5 39 0
-15 14 0
-10 30 0
-16 -22 0
-17 -24 0
-7 -16 0
-29 22 0
-24 4 0
2 -4 0
-16 37 0
-24 5 0
3 7 0
-28 7 0
9 -37 0
36 -40 0
-19 -8 0
-19 -40 0
-21 36 0
21 -30 0
35 1 0
-2 16 0
-32 10 0
-9 -25 0
15 6 0
-19 -8 0
-34 -12 0
-19 -7 0
-30 -15 0
-38 31 0
-29 14 0
-39 -3 0
13 9 0
12 -40 0
1 -25 0
-35 34 0
31 -23 0
25 17 0
-27 4 0
-21 -22 0
38 20 0
23 40 0
36 -19 0
-12 -22 0
9 -32 0
-22 38 0
2 28 0
-12 -1 0
-5 -37 0
-40 29 0
36 19 0
21 -9 0
40 1 0
-20 18 0
