c PROBLEM_040_090_40  vars=40  clausulas=90  k=2
p cnf 40 90
28 -19 0
-20 7 0
26 -32 0
10 -20 0
-20 12 0
-28 4 0
-18 -4 0
3 29 0
4 -1 0
-5 -31 0
-34 28 0
-7 27 0
22 -17 0
-35 -3 0
-7 18 0
16 21 0
-37 29 0
-17 -40 0
25 30 0
-33 -18 0
5 -7 0
-9 39 0
10 -33 0
13 31 0
-13 -18 0
-39 13 0
7 27 0
36 -18 0
11 27 0
-14 9 0
37 -9 0
37 39 0
-29 27 0
-37 -10 0
-6 -9 0
-32 -28 0
39 20 0
12 5 0
-40 -30 0
-14 39 0
5 35 0
-34 23 0
8 -11 0
39 25 0
-19 -22 0
-28 20 0
-37 25 0
-7 27 0
-16 -20 0
18 -19 0
-3 28 0
-40 29 0
-1 -28 0
37 -8 0
22 28 0
26 -28 0
34 6 0
-9 -19 0
-38 15 0
2 3 0
-11 -7 0
-24 14 0
22 -28 0
-14 36 0
-35 1 0
25 6 0
-12 26 0
-36 -16 0
-6 31 0
-17 38 0
31 39 0
10 -20 0
-8 2 0
-25 23 0
40 -8 0
-4 16 0
-39 -14 0
16 35 0
10 33 0
-3 -34 0
-9 28 0
24 -9 0
7 15 0
-10 37 0
36 12 0
20 -36 0
-35 -7 0
4 14 0
-25 22 0
-19 -29 0
