c PROBLEM_040_090_36  vars=40  clausulas=90  k=2
p cnf 40 90
-32 27 0
-25 2 0
3 40 0
34 -28 0
-3 -18 0
14 -17 0
-40 29 0
-4 -33 0
2 -39 0
9 -32 0
7 4 0
18 40 0
-9 30 0
-13 10 0
11 9 0
8 2 0
-25 -13 0
26 38 0
-29 -17 0
7 -2 0
-28 26 0
11 22 0
6 -22 0
37 29 0
-17 -16 0
-30 31 0
-30 -18 0
5 28 0
-32 -35 0
-32 -19 0
8 -15 0
10 23 0
39 31 0
-6 4 0
38 12 0
27 -30 0
36 -31 0
-32 29 0
27 -7 0
-15 -8 0
29 -11 0
-1 -15 0
-31 22 0
-30 -25 0
-2 -22 0
3 -19 0
-11 -39 0
29 26 0
-35 -18 0
-39 -34 0
-16 -20 0
20 38 0
6 -22 0
23 -13 0
35 -22 0
18 5 0
1 -40 0
-2 20 0
19 40 0
-1 -36 0
-29 24 0
32 6 0
1 19 0
-20 6 0
34 22 0
-18 5 0
-19 3 0
37 3 0
-7 21 0
-23 14 0
-12 27 0
6 28 0
-8 24 0
26 -35 0
-2 -13 0
18 10 0
27 -40 0
16 24 0
-1 22 0
-24 17 0
-19 3 0
-2 -14 0
-37 -4 0
-19 29 0
8 7 0
-34 7 0
23 -5 0
-37 14 0
-9 -13 0
20 5 0
