c PROBLEM_040_090_10  vars=40  clausulas=90  k=2
p cnf 40 90
-3 -36 0
4 -18 0
-38 27 0
6 -9 0
-22 12 0
17 -32 0
13 16 0
38 -8 0
-7 -37 0
19 -15 0
-17 -15 0
-29 24 0
-13 -40 0
-37 24 0
-15 18 0
19 -8 0
-39 16 0
7 -13 0
14 13 0
-11 35 0
34 7 0
-12 27 0
19 23 0
-21 5 0
-30 11 0
39 -35 0
-31 15 0
28 16 0
26 23 0
9 -21 0
-16 -20 0
27 -32 0
5 -36 0
32 -13 0
31 7 0
-7 -2 0
35 8 0
9 -3 0
9 25 0
-2 26 0
-4 -40 0
-8 -23 0
26 -14 0
14 3 0
16 20 0
-11 -20 0
-4 -13 0
-13 -14 0
-38 -1 0
-27 18 0
-24 -8 0
-23 4 0
-10 -27 0
-1 -7 0
38 -26 0
-11 14 0
29 -2 0
35 -1 0
14 -11 0
34 38 0
39 -38 0
-19 -21 0
36 -4 0
-25 -12 0
31 25 0
36 -39 0
-7 28 0
29 -26 0
-13 27 0
38 31 0
-11 -2 0
17 -32 0
-32 15 0
5 1 0
-4 2 0
-6 27 0
38 32 0
-4 -33 0
-12 6 0
-10 -18 0
4 26 0
29 -16 0
25 35 0
-38 -15 0
-1 -33 0
20 5 0
-4 24 0
-40 28 0
13 20 0
15 23 0
