c PROBLEM_040_090_46  vars=40  clausulas=90  k=2
p cnf 40 90
29 -12 0
-32 40 0
24 11 0
3 -34 0
-10 13 0
-23 2 0
-1 -37 0
32 -21 0
-19 -8 0
-23 1 0
1 7 0
18 -34 0
7 36 0
-25 17 0
19 23 0
6 28 0
29 10 0
23 -19 0
-18 -5 0
5 -39 0
29 -3 0
-18 -25 0
30 -31 0
16 22 0
24 11 0
-7 17 0
8 1 0
20 37 0
35 26 0
20 35 0
-32 -37 0
33 -4 0
-18 -12 0
16 13 0
37 9 0
-32 36 0
-1 29 0
-36 -12 0
-22 -7 0
-35 -12 0
31 18 0
-20 -16 0
31 -26 0
13 -10 0
15 -22 0
-27 26 0
-7 -26 0
-14 -39 0
-18 -4 0
-5 -33 0
-20 -15 0
-27 12 0
-36 -2 0
4 -30 0
9 -10 0
-30 -10 0
22 32 0
22 34 0
-12 -32 0
38 -19 0
-15 2 0
-37 39 0
14 -34 0
-26 -3 0
-20 -21 0
-30 29 0
35 -3 0
2 16 0
-15 34 0
-8 -12 0
-14 -16 0
-7 17 0
-23 -21 0
-15 35 0
9 -40 0
22 -27 0
-11 21 0
-16 35 0
28 -25 0
-26 -38 0
-35 -2 0
-38 -35 0
22 17 0
32 15 0
-6 12 0
-14 6 0
11 39 0
39 -40 0
18 29 0
-26 -36 0
