c PROBLEM_040_090_35  vars=40  clausulas=90  k=2
p cnf 40 90
-15 -27 0
-22 -15 0
-2 -40 0
-7 15 0
-14 -5 0
32 28 0
-33 -4 0
30 40 0
-4 28 0
-1 31 0
-6 2 0
-20 -28 0
34 -3 0
8 -19 0
-39 38 0
39 40 0
-25 4 0
-22 2 0
-11 23 0
-9 -7 0
-6 -19 0
40 -9 0
26 1 0
-39 27 0
-29 26 0
29 31 0
20 39 0
21 -5 0
-32 -36 0
36 -11 0
27 -5 0
29 -27 0
34 -22 0
15 18 0
36 18 0
35 25 0
-23 25 0
18 -37 0
-37 4 0
9 12 0
-27 26 0
38 -19 0
-36 -37 0
-40 -17 0
3 24 0
-24 -20 0
13 33 0
6 -10 0
-5 -4 0
35 36 0
17 33 0
-32 19 0
25 5 0
22 -8 0
21 -30 0
-21 8 0
-15 -21 0
15 -27 0
-32 -10 0
-38 -29 0
-6 -38 0
-19 -1 0
3 -16 0
6 35 0
31 -29 0
15 31 0
-2 -21 0
16 12 0
13 -24 0
34 -23 0
30 -32 0
3 -8 0
-7 18 0
-21 38 0
-32 5 0
13 36 0
5 -4 0
-2 21 0
20 10 0
4 -35 0
-10 4 0
21 15 0
16 -5 0
29 6 0
25 28 0
-22 -33 0
-5 7 0
20 -23 0
-31 -25 0
-1 33 0
