c PROBLEM_040_090_27  vars=40  clausulas=90  k=2
p cnf 40 90
-29 9 0
-2 -18 0
9 -24 0
36 -17 0
-15 -4 0
-14 35 0
-10 2 0
8 25 0
-15 -19 0
21 33 0
15 39 0
8 35 0
-25 -9 0
16 -31 0
-14 24 0
-3 -10 0
22 8 0
27 11 0
13 -19 0
-17 3 0
13 -29 0
-20 -19 0
23 -39 0
37 -9 0
-29 -9 0
7 -14 0
-27 -13 0
-22 38 0
30 -33 0
-22 18 0
38 10 0
38 5 0
-37 -3 0
-1 -23 0
1 2 0
-33 32 0
-32 -27 0
13 12 0
-26 -4 0
31 5 0
27 -28 0
-30 27 0
-28 22 0
-25 -40 0
-37 -28 0
-27 -2 0
-12 24 0
9 37 0
9 -18 0
5 -4 0
26 7 0
-33 -27 0
-29 -39 0
-10 -8 0
-30 -23 0
-18 -23 0
-33 -8 0
-38 34 0
3 15 0
-11 -22 0
36 30 0
10 -40 0
24 -1 0
-12 -14 0
-3 -39 0
-40 22 0
37 -34 0
3 -39 0
-21 -20 0
-13 -23 0
33 -31 0
19 28 0
-37 -1 0
-38 -22 0
11 36 0
-19 31 0
30 21 0
-30 29 0
-12 8 0
27 6 0
17 -4 0
-27 -2 0
20 -38 0
-35 -34 0
11 -7 0
-10 7 0
-26 -11 0
38 -37 0
32 28 0
6 5 0
