c PROBLEM_040_090_43  vars=40  clausulas=90  k=2
p cnf 40 90
6 -36 0
-10 -13 0
-4 1 0
12 14 0
-13 -20 0
-25 40 0
-25 -1 0
24 19 0
-24 -17 0
37 19 0
23 -10 0
-32 -20 0
-29 -28 0
-27 -5 0
-19 -20 0
5 -34 0
12 31 0
-34 -37 0
27 -32 0
35 6 0
38 -27 0
36 -18 0
-2 19 0
13 -37 0
-24 -21 0
-27 -4 0
23 24 0
13 -30 0
-30 -10 0
33 -32 0
-32 24 0
5 35 0
23 27 0
-10 3 0
-7 17 0
10 -9 0
-24 13 0
-26 29 0
-18 29 0
-31 -22 0
13 20 0
37 30 0
-25 7 0
-19 -12 0
-26 -28 0
8 -19 0
-30 -33 0
-4 -5 0
-14 -13 0
34 -31 0
36 30 0
36 -20 0
33 30 0
39 34 0
-2 -4 0
-24 28 0
-24 37 0
-39 25 0
-21 10 0
-16 -39 0
8 -32 0
15 -29 0
-38 -16 0
25 -5 0
24 -34 0
38 -34 0
-31 37 0
5 9 0
-16 -21 0
27 14 0
27 -40 0
35 20 0
-37 11 0
8 21 0
-2 26 0
2 -16 0
15 28 0
22 -25 0
-40 15 0
-31 36 0
-40 -26 0
36 -39 0
3 -39 0
6 24 0
20 30 0
40 9 0
32 22 0
38 13 0
-22 18 0
10 21 0
