c PROBLEM_040_090_25  vars=40  clausulas=90  k=2
p cnf 40 90
40 -27 0
-18 -22 0
34 -35 0
-7 18 0
20 1 0
2 27 0
-12 -24 0
23 -37 0
-22 -7 0
-14 30 0
-3 -8 0
40 -19 0
31 -12 0
31 -36 0
15 36 0
3 -35 0
-38 1 0
15 32 0
39 -12 0
25 14 0
18 -24 0
-11 -17 0
33 34 0
33 -1 0
11 13 0
-24 39 0
8 -23 0
33 29 0
23 39 0
-28 34 0
9 -24 0
-27 34 0
31 -22 0
-32 -22 0
9 2 0
-26 -39 0
34 16 0
6 19 0
14 -16 0
-23 35 0
4 -11 0
26 31 0
-11 26 0
8 2 0
-30 22 0
-31 -1 0
-17 11 0
-18 37 0
-15 10 0
-40 35 0
2 15 0
-39 -26 0
7 -27 0
22 23 0
-25 -38 0
36 9 0
26 35 0
-14 5 0
17 -21 0
12 -8 0
-23 38 0
-7 -6 0
30 -40 0
33 -37 0
-40 26 0
25 23 0
18 -1 0
-20 15 0
-37 -34 0
1 -14 0
4 -40 0
20 -1 0
32 10 0
-4 -14 0
14 20 0
-8 11 0
22 -34 0
-24 -18 0
-3 11 0
38 -25 0
15 29 0
-11 -12 0
-13 21 0
-16 -36 0
-11 -31 0
-23 32 0
22 -1 0
1 13 0
-37 9 0
3 7 0
