c PROBLEM_040_090_04  vars=40  clausulas=90  k=2
p cnf 40 90
-4 8 0
-2 23 0
15 -39 0
-40 -26 0
-14 -17 0
-25 15 0
-28 -22 0
25 -15 0
-33 -25 0
-9 17 0
-19 12 0
6 -9 0
30 -3 0
-29 -2 0
-2 39 0
-22 12 0
19 -6 0
29 8 0
2 -8 0
21 -33 0
-36 24 0
-40 -37 0
22 18 0
24 -3 0
39 36 0
-17 -8 0
-34 -7 0
22 -16 0
-7 27 0
-30 18 0
30 -9 0
16 26 0
8 18 0
-32 9 0
34 -26 0
17 -33 0
9 32 0
16 -40 0
-4 25 0
-33 -23 0
4 -21 0
-36 3 0
38 -35 0
-23 12 0
39 15 0
20 -34 0
-1 -11 0
8 13 0
27 23 0
-28 21 0
20 22 0
-8 2 0
31 -25 0
-7 -32 0
40 29 0
-21 -14 0
18 9 0
1 -12 0
33 22 0
-21 -40 0
39 14 0
32 -29 0
-27 -11 0
-38 -11 0
-20 -19 0
36 -34 0
21 5 0
-35 34 0
12 5 0
1 -28 0
15 26 0
19 14 0
38 -13 0
32 6 0
24 9 0
18 -4 0
34 36 0
-10 7 0
39 5 0
-19 25 0
-24 -13 0
-37 33 0
24 7 0
-5 -23 0
-17 5 0
-4 -18 0
27 25 0
3 23 0
-40 -1 0
31 -36 0
