c PROBLEM_040_090_12  vars=40  clausulas=90  k=2
p cnf 40 90
-6 -31 0
-11 20 0
25 -2 0
6 -14 0
-16 -23 0
40 39 0
2 -26 0
30 2 0
-30 27 0
-20 -29 0
3 39 0
-3 19 0
10 -22 0
-29 24 0
22 21 0
-38 24 0
-36 -34 0
33 1 0
40 -32 0
-31 -28 0
15 -38 0
35 9 0
18 25 0
-2 -8 0
-12 -30 0
35 19 0
-1 -3 0
7 -6 0
-39 -12 0
27 -2 0
-26 10 0
-39 -10 0
39 12 0
-2 6 0
40 39 0
29 40 0
-19 21 0
-25 -33 0
13 39 0
-13 8 0
-11 7 0
-38 -8 0
-25 16 0
-9 -34 0
33 23 0
36 11 0
28 -36 0
32 23 0
-34 -18 0
39 26 0
37 25 0
24 -36 0
17 -38 0
-14 15 0
-25 23 0
-31 -2 0
-17 -38 0
24 11 0
-28 -13 0
11 31 0
23 1 0
39 -36 0
24 38 0
-30 -14 0
21 15 0
-5 9 0
-8 -5 0
-18 -19 0
2 -27 0
-31 -35 0
15 16 0
23 -39 0
-28 25 0
-19 -23 0
-24 -14 0
4 -14 0
7 4 0
23 -20 0
15 -30 0
-35 -24 0
-5 -12 0
38 -3 0
-2 26 0
-1 39 0
6 -16 0
1 24 0
-38 -1 0
14 -7 0
13 -7 0
-40 14 0
