c PROBLEM_040_090_32  vars=40  clausulas=90  k=2
p cnf 40 90
-20 12 0
32 26 0
-5 38 0
-2 18 0
32 5 0
25 37 0
-33 -40 0
-24 -39 0
16 -28 0
-16 -20 0
-36 37 0
27 -32 0
-19 5 0
15 -8 0
35 37 0
-17 19 0
35 37 0
21 38 0
10 31 0
13 3 0
-9 -24 0
-9 33 0
-18 -21 0
-11 28 0
23 34 0
17 -9 0
21 -23 0
-21 -16 0
-37 24 0
6 2 0
-17 39 0
27 35 0
13 40 0
-28 -19 0
-19 31 0
12 5 0
40 3 0
16 -33 0
37 33 0
24 -12 0
-40 -19 0
-27 18 0
-35 -23 0
8 39 0
-13 -9 0
15 -7 0
-26 -36 0
-30 1 0
13 -16 0
23 -7 0
7 33 0
-35 40 0
-8 -17 0
-29 -12 0
25 26 0
-24 -7 0
-40 -34 0
-9 30 0
-13 -39 0
10 20 0
15 24 0
31 -9 0
-19 1 0
-30 -37 0
-21 26 0
-9 33 0
-13 -29 0
-9 -4 0
-11 -26 0
18 -32 0
-29 -7 0
17 -22 0
-14 25 0
-16 25 0
20 -5 0
28 -32 0
-4 1 0
28 -13 0
15 -38 0
27 -10 0
-9 -33 0
-10 26 0
2 5 0
6 19 0
-30 36 0
-26 31 0
-34 15 0
3 21 0
22 -38 0
25 6 0
