c PROBLEM_040_090_47  vars=40  clausulas=90  k=2
p cnf 40 90
-18 -28 0
38 12 0
-35 10 0
-20 -10 0
25 33 0
4 -5 0
8 -23 0
39 -25 0
22 10 0
38 16 0
25 -14 0
23 28 0
-17 -1 0
11 -23 0
-15 -25 0
-12 -2 0
-38 -36 0
-35 14 0
1 -39 0
19 16 0
34 5 0
-26 -29 0
10 -23 0
30 -3 0
11 -2 0
39 32 0
13 -23 0
-22 35 0
-40 -16 0
24 -36 0
26 -11 0
15 -29 0
-31 29 0
40 -35 0
18 -6 0
-4 27 0
-32 -24 0
-25 -5 0
-30 2 0
-34 9 0
38 -15 0
-28 21 0
37 20 0
9 -23 0
37 -18 0
-6 25 0
16 1 0
-14 -6 0
-27 38 0
-29 20 0
-39 20 0
40 16 0
3 40 0
22 -16 0
-24 -38 0
-37 -23 0
-37 -3 0
-5 -6 0
-33 -27 0
5 10 0
32 23 0
17 39 0
13 1 0
-15 33 0
2 16 0
4 -17 0
33 23 0
34 -19 0
36 33 0
25 11 0
-21 -31 0
30 32 0
18 12 0
33 12 0
12 17 0
-6 3 0
-7 -28 0
-7 21 0
12 4 0
16 25 0
-17 38 0
22 -18 0
36 -31 0
-20 14 0
-3 40 0
10 14 0
-8 -2 0
28 16 0
19 8 0
-19 10 0
