c PROBLEM_040_090_16  vars=40  clausulas=90  k=2
p cnf 40 90
-9 -10 0
-25 -28 0
-31 35 0
12 32 0
-38 -23 0
27 17 0
-14 25 0
-25 34 0
-9 -13 0
-11 26 0
35 -1 0
1 27 0
-40 12 0
-26 -24 0
19 -3 0
20 12 0
-20 28 0
24 -13 0
-27 7 0
-23 -29 0
-31 13 0
24 39 0
-7 35 0
16 -26 0
25 14 0
12 35 0
-1 -36 0
5 21 0
30 13 0
7 6 0
-40 -18 0
2 -33 0
-13 21 0
-34 -35 0
35 18 0
-38 -35 0
28 -24 0
23 27 0
27 -26 0
36 19 0
30 34 0
10 4 0
34 -1 0
-16 7 0
23 -8 0
32 12 0
12 7 0
-21 -25 0
-22 9 0
-33 -2 0
24 -8 0
-24 22 0
40 -31 0
11 21 0
-6 -14 0
-17 27 0
36 28 0
24 4 0
-34 -5 0
-1 13 0
16 -19 0
33 -30 0
22 4 0
-15 -22 0
2 -15 0
28 -30 0
10 -5 0
-35 -23 0
37 -35 0
-22 23 0
-2 -14 0
-32 39 0
25 -24 0
27 19 0
16 -14 0
37 -33 0
12 -39 0
-39 -36 0
14 -5 0
-40 26 0
26 -24 0
-21 -28 0
7 -16 0
35 -23 0
-15 20 0
18 5 0
4 -33 0
-15 -21 0
-8 15 0
6 18 0
