c PROBLEM_040_090_18  vars=40  clausulas=90  k=2
p cnf 40 90
8 10 0
19 6 0
6 21 0
15 23 0
-20 29 0
-15 -34 0
16 -35 0
39 2 0
-13 -11 0
-12 -2 0
-21 -38 0
38 -34 0
-13 33 0
26 -8 0
7 8 0
40 23 0
16 28 0
-11 -33 0
14 -39 0
-8 34 0
-32 29 0
18 -1 0
12 24 0
3 19 0
-26 -31 0
-19 -38 0
22 24 0
36 14 0
-17 40 0
-30 31 0
39 -7 0
-19 -25 0
-17 -35 0
-35 -3 0
39 34 0
-17 -22 0
6 -13 0
-18 31 0
-37 11 0
-39 36 0
4 10 0
-30 40 0
-17 13 0
5 -25 0
10 -9 0
21 -24 0
25 -19 0
-27 -22 0
20 -13 0
21 5 0
1 30 0
34 -33 0
19 20 0
-3 21 0
-37 15 0
-2 28 0
-24 29 0
16 -1 0
26 -1 0
9 -11 0
25 -13 0
-31 -23 0
19 -20 0
-27 -17 0
16 10 0
38 32 0
20 -38 0
4 -29 0
9 30 0
5 8 0
-16 -13 0
18 -35 0
23 34 0
14 -37 0
-26 12 0
-11 35 0
15 -27 0
13 -25 0
15 39 0
-10 11 0
34 -32 0
33 -32 0
-16 -17 0
-6 -36 0
28 -26 0
-31 5 0
-40 21 0
10 33 0
28 1 0
22 -35 0
