c PROBLEM_040_090_39  vars=40  clausulas=90  k=2
p cnf 40 90
8 -2 0
33 -14 0
3 -14 0
-14 27 0
4 -21 0
5 -36 0
15 -14 0
-13 -6 0
-17 19 0
27 19 0
37 20 0
-25 38 0
6 -19 0
-18 28 0
-5 40 0
3 38 0
-25 -5 0
-25 -19 0
-13 -33 0
34 -9 0
-10 -20 0
-18 -2 0
23 22 0
-39 -17 0
-6 37 0
-30 26 0
16 15 0
2 -30 0
28 37 0
-30 -10 0
8 18 0
-8 9 0
12 14 0
-30 -5 0
-40 2 0
-20 -15 0
-7 8 0
-18 31 0
7 -9 0
30 -8 0
-5 22 0
-33 -19 0
40 -1 0
-32 -34 0
-24 -14 0
1 -25 0
13 26 0
37 -36 0
-3 15 0
12 -39 0
-9 35 0
-17 -27 0
10 -19 0
19 8 0
16 3 0
21 -4 0
35 -1 0
-30 -35 0
16 20 0
40 10 0
-17 -31 0
10 28 0
27 16 0
-6 -7 0
-18 -27 0
-22 -9 0
-38 -7 0
-19 -17 0
-10 8 0
36 -23 0
23 -8 0
-12 -5 0
2 15 0
-5 39 0
-19 -31 0
-21 -32 0
29 17 0
39 -25 0
-12 25 0
27 -31 0
-17 -15 0
-34 11 0
-37 12 0
20 -18 0
38 -29 0
35 -13 0
13 5 0
-22 23 0
-9 30 0
-13 9 0
