c PROBLEM_040_090_48  vars=40  clausulas=90  k=2
p cnf 40 90
-21 -38 0
-21 -3 0
-5 29 0
15 4 0
-8 -36 0
-1 21 0
-24 -28 0
-20 -13 0
-40 2 0
8 -32 0
-36 26 0
-16 38 0
-38 -18 0
-10 27 0
-34 -32 0
-17 -34 0
-2 25 0
19 -33 0
-12 30 0
30 24 0
19 37 0
9 -34 0
-39 22 0
-7 24 0
-18 -25 0
27 22 0
8 26 0
22 -20 0
-20 32 0
17 24 0
-38 23 0
37 4 0
-6 -36 0
34 -17 0
-16 -32 0
-17 -15 0
-16 38 0
-14 9 0
-26 5 0
-12 18 0
5 24 0
-26 22 0
39 34 0
-24 8 0
27 1 0
3 6 0
13 11 0
29 37 0
-29 -3 0
-6 27 0
25 27 0
35 23 0
27 13 0
-5 9 0
-28 38 0
8 34 0
-7 23 0
-8 -16 0
-35 -31 0
-21 -29 0
35 31 0
39 20 0
-40 10 0
25 -31 0
1 28 0
-17 -1 0
-26 19 0
-14 35 0
-30 -32 0
-35 -28 0
16 -40 0
31 -33 0
-21 4 0
10 -17 0
-34 -3 0
-32 18 0
40 1 0
-11 17 0
18 30 0
38 -28 0
18 1 0
37 36 0
-34 -20 0
-38 -5 0
12 -32 0
11 1 0
-30 35 0
-28 -22 0
-3 23 0
36 22 0
