c PROBLEM_040_090_38  vars=40  clausulas=90  k=2
p cnf 40 90
13 32 0
-30 -36 0
-5 35 0
-22 -23 0
28 13 0
-6 -35 0
34 36 0
-15 29 0
-26 20 0
28 26 0
26 -6 0
25 -17 0
-11 7 0
-39 36 0
-39 -27 0
33 -27 0
-22 -14 0
6 -12 0
-33 31 0
35 27 0
7 35 0
-24 -32 0
-12 36 0
25 -37 0
-14 5 0
-27 29 0
3 -8 0
-39 -20 0
12 6 0
6 -2 0
5 -39 0
-7 4 0
30 38 0
-39 20 0
37 -20 0
34 14 0
18 -11 0
34 -26 0
31 -24 0
33 -15 0
19 -15 0
40 25 0
19 -38 0
16 34 0
40 33 0
29 -10 0
-25 -3 0
-18 39 0
34 38 0
-22 33 0
20 -11 0
-38 -17 0
6 -2 0
29 -21 0
-32 -26 0
30 -26 0
-37 -9 0
-24 34 0
-40 37 0
-19 -1 0
20 22 0
16 -38 0
-22 -19 0
37 1 0
8 -26 0
10 -5 0
28 -19 0
-26 -22 0
-14 28 0
22 -1 0
12 -32 0
-31 23 0
-9 -11 0
31 6 0
-18 -2 0
-20 6 0
-38 -27 0
-38 8 0
-40 11 0
-4 21 0
38 36 0
17 2 0
25 -1 0
-22 19 0
-10 29 0
20 8 0
25 36 0
39 6 0
5 21 0
-10 26 0
