c PROBLEM_040_090_15  vars=40  clausulas=90  k=2
p cnf 40 90
9 -26 0
12 -33 0
5 7 0
2 15 0
-33 36 0
-28 -24 0
-6 -23 0
20 38 0
-40 8 0
-19 32 0
-8 2 0
-22 -39 0
40 27 0
-19 -29 0
-30 -29 0
-9 -1 0
-23 15 0
-35 -38 0
36 17 0
7 -37 0
-39 4 0
-39 -37 0
15 -14 0
1 -9 0
-19 -23 0
-23 -3 0
31 -16 0
18 7 0
-14 -40 0
2 8 0
-25 -39 0
24 34 0
35 30 0
13 -40 0
-14 -33 0
-38 -40 0
10 -22 0
23 4 0
5 28 0
-13 2 0
-25 -36 0
34 29 0
-33 21 0
20 11 0
15 37 0
-13 10 0
12 21 0
-18 2 0
39 -13 0
-40 -10 0
-32 -34 0
-16 28 0
17 -27 0
-23 18 0
16 -37 0
-3 -21 0
13 30 0
12 -19 0
40 -27 0
-33 20 0
-6 -25 0
-17 19 0
39 -13 0
-14 36 0
-6 29 0
14 -16 0
39 -28 0
15 -3 0
33 19 0
-30 22 0
24 -11 0
-2 23 0
5 11 0
-3 5 0
-2 -20 0
-23 -9 0
36 35 0
-27 -35 0
15 -38 0
32 22 0
-4 -20 0
-10 16 0
-19 -25 0
-20 15 0
-9 22 0
-40 4 0
-3 20 0
34 -25 0
-21 39 0
-39 -34 0
