c PROBLEM_040_090_20  vars=40  clausulas=90  k=2
p cnf 40 90
11 -12 0
-22 10 0
-13 29 0
19 33 0
26 -6 0
30 38 0
16 -32 0
17 -5 0
-28 23 0
-19 -12 0
-27 -4 0
-3 -29 0
26 30 0
-26 32 0
-4 -23 0
-17 -28 0
24 -34 0
-21 -37 0
-29 -9 0
-8 21 0
-34 -9 0
4 9 0
8 35 0
6 18 0
-2 3 0
18 -27 0
-24 -7 0
20 -2 0
-39 -30 0
-11 -1 0
-36 -10 0
-24 14 0
17 -31 0
-13 22 0
-7 27 0
29 -21 0
34 -19 0
-2 -27 0
22 -20 0
26 -37 0
35 16 0
22 -4 0
2 -35 0
25 32 0
11 -16 0
29 -24 0
27 -1 0
14 24 0
-27 24 0
33 6 0
38 -3 0
39 34 0
-36 21 0
32 -28 0
34 -39 0
-33 23 0
-3 9 0
-17 37 0
8 39 0
33 18 0
15 -25 0
-22 31 0
1 11 0
11 13 0
5 32 0
-21 -32 0
32 -5 0
5 -14 0
-6 -1 0
-21 -40 0
4 12 0
10 7 0
-33 -6 0
-20 -7 0
2 -30 0
30 12 0
-15 -12 0
-35 20 0
16 35 0
38 18 0
-21 25 0
-11 21 0
10 -19 0
15 40 0
-31 4 0
-26 -7 0
35 -2 0
-17 12 0
-33 -40 0
-20 -31 0
