c PROBLEM_040_090_05  vars=40  clausulas=90  k=2
p cnf 40 90
27 -3 0
10 9 0
15 -19 0
-27 23 0
-31 -38 0
-7 5 0
2 -19 0
-18 -29 0
-23 -22 0
39 1 0
10 22 0
-24 -4 0
17 22 0
-11 20 0
-5 32 0
28 -33 0
29 -16 0
-25 -23 0
-35 -6 0
20 -14 0
-31 -7 0
25 33 0
-11 -28 0
-32 1 0
2 -40 0
17 -20 0
14 31 0
-36 -9 0
-20 -15 0
11 -25 0
20 -37 0
-32 -5 0
6 20 0
14 37 0
-1 30 0
-36 -2 0
-33 34 0
-8 -34 0
3 -28 0
-24 -21 0
19 1 0
-4 -16 0
-2 33 0
29 37 0
-38 -1 0
-4 -6 0
31 36 0
-18 4 0
-35 10 0
-4 2 0
36 -14 0
27 -6 0
7 -29 0
-19 -40 0
28 3 0
-9 5 0
-28 -1 0
18 -38 0
23 33 0
-12 16 0
27 38 0
-6 -5 0
-25 -18 0
38 -9 0
-15 -9 0
-21 -35 0
-13 -36 0
2 16 0
39 -25 0
-14 28 0
-33 17 0
-5 -7 0
35 23 0
30 -36 0
21 -10 0
29 -22 0
18 10 0
6 -22 0
-20 27 0
38 5 0
26 25 0
6 4 0
8 -14 0
37 -18 0
20 35 0
12 -27 0
-31 -39 0
22 -28 0
8 -30 0
-33 -23 0
