c PROBLEM_040_090_28  vars=40  clausulas=90  k=2
p cnf 40 90
-24 -13 0
-33 6 0
-28 -36 0
34 -3 0
20 -22 0
33 -20 0
29 17 0
-40 20 0
-10 -4 0
37 -36 0
29 -5 0
4 -15 0
-3 36 0
34 6 0
-11 27 0
13 9 0
7 35 0
-18 -35 0
-11 36 0
-32 25 0
15 9 0
34 16 0
-34 36 0
-4 -18 0
-6 27 0
-40 13 0
36 30 0
-1 -37 0
20 10 0
-34 28 0
-33 29 0
16 -29 0
-23 -19 0
-33 14 0
26 10 0
14 40 0
23 -11 0
8 31 0
-23 -38 0
-8 38 0
-35 5 0
24 -9 0
26 -30 0
8 25 0
-30 7 0
-17 -27 0
-33 -34 0
19 -17 0
-37 40 0
-11 -14 0
-34 -12 0
-29 -19 0
-40 25 0
6 13 0
-2 -12 0
27 15 0
-2 26 0
-19 -9 0
8 34 0
31 30 0
-34 38 0
11 -40 0
-1 -39 0
-29 38 0
39 19 0
16 26 0
18 -11 0
21 31 0
-13 -12 0
-28 16 0
8 32 0
3 4 0
-35 31 0
-8 -5 0
38 -26 0
23 14 0
-5 -7 0
36 12 0
-22 40 0
-22 -24 0
18 -9 0
6 -35 0
24 38 0
10 5 0
36 -11 0
13 -31 0
-6 -28 0
-21 24 0
-4 -11 0
3 30 0
