c PROBLEM_040_090_03  vars=40  clausulas=90  k=2
p cnf 40 90
-22 19 0
32 -23 0
-27 16 0
13 16 0
-5 4 0
8 -14 0
-39 8 0
6 8 0
-38 -20 0
28 -1 0
21 34 0
-29 -15 0
-40 -25 0
2 -10 0
27 39 0
-11 -27 0
38 35 0
-19 -9 0
31 13 0
23 -21 0
-22 -23 0
15 -8 0
23 -20 0
30 -5 0
-18 38 0
-10 5 0
-29 33 0
-9 -38 0
10 24 0
-39 30 0
24 -17 0
-39 -10 0
18 -30 0
14 2 0
-33 38 0
-33 -20 0
25 3 0
31 39 0
10 1 0
-20 -12 0
-37 2 0
18 1 0
-38 -32 0
40 -17 0
-40 9 0
23 24 0
8 -27 0
-21 -15 0
18 -5 0
30 26 0
-31 9 0
-26 -29 0
-12 -15 0
-18 6 0
22 -37 0
11 -23 0
13 1 0
16 -17 0
-28 -33 0
-6 -1 0
5 -10 0
-7 -38 0
5 -37 0
-30 -9 0
-32 2 0
24 -5 0
-1 7 0
-36 -11 0
-38 -35 0
-6 38 0
-5 38 0
10 -40 0
-8 18 0
32 -34 0
-8 39 0
36 22 0
8 -7 0
-36 -32 0
1 21 0
23 34 0
23 -30 0
1 8 0
-6 12 0
5 1 0
36 4 0
-35 29 0
21 22 0
14 -5 0
-21 -14 0
-28 13 0
