c PROBLEM_040_090_02  vars=40  clausulas=90  k=2
p cnf 40 90
4 -11 0
25 -40 0
12 -19 0
-6 22 0
16 -3 0
-7 35 0
-13 -36 0
-27 -18 0
-39 -30 0
16 -24 0
-37 -1 0
-40 -30 0
-4 18 0
-12 -25 0
-9 -33 0
35 39 0
-5 29 0
31 2 0
-23 -1 0
-30 11 0
-31 24 0
-26 -38 0
-24 -17 0
24 -2 0
-39 -38 0
17 21 0
-13 24 0
-19 -11 0
-25 9 0
-18 -29 0
6 -22 0
8 24 0
-3 17 0
9 -35 0
40 -3 0
18 -4 0
21 27 0
21 5 0
13 -11 0
-25 -4 0
37 -15 0
7 -6 0
-14 -17 0
-12 -40 0
18 -7 0
-16 -14 0
11 36 0
-31 26 0
17 29 0
-23 30 0
-2 -25 0
-18 -8 0
32 -36 0
-14 21 0
-5 -39 0
22 -35 0
-24 -29 0
40 -29 0
12 -21 0
-20 22 0
-5 2 0
11 -16 0
28 -2 0
23 9 0
23 -8 0
16 -33 0
-34 14 0
-14 29 0
34 20 0
-19 -26 0
27 11 0
33 -5 0
35 29 0
26 4 0
12 32 0
8 1 0
37 -23 0
1 -24 0
-3 -36 0
38 -40 0
-25 8 0
9 10 0
-10 -4 0
23 13 0
-15 18 0
-40 30 0
6 35 0
36 19 0
-21 1 0
36 7 0
