c PROBLEM_040_100_21  vars=40  clausulas=100  k=2
p cnf 40 100
30 -31 0
-4 23 0
24 -39 0
7 -37 0
-14 -31 0
-15 -8 0
9 -39 0
9 6 0
17 13 0
-29 -12 0
16 7 0
34 7 0
-11 -39 0
-26 32 0
-16 -29 0
11 39 0
-7 -34 0
18 -4 0
-27 -39 0
16 32 0
26 17 0
31 23 0
9 14 0
12 39 0
-1 -2 0
28 -10 0
2 31 0
-2 -37 0
-40 -25 0
-12 -10 0
-34 28 0
-40 22 0
18 -16 0
-9 -32 0
18 26 0
19 29 0
-6 16 0
17 11 0
-5 -38 0
34 -21 0
-38 12 0
-29 9 0
2 -11 0
-21 32 0
-34 9 0
38 37 0
-24 38 0
-25 -20 0
18 13 0
23 16 0
38 27 0
-33 -34 0
-28 15 0
-40 6 0
22 30 0
22 27 0
6 -10 0
-6 -38 0
30 33 0
3 6 0
-33 -22 0
15 -14 0
-26 32 0
-13 16 0
21 17 0
1 -25 0
19 28 0
-29 2 0
36 14 0
-19 38 0
-34 40 0
-26 35 0
19 -21 0
-31 33 0
21 -3 0
12 -28 0
15 -5 0
3 -15 0
15 -20 0
-7 -21 0
24 -2 0
21 33 0
8 -1 0
30 -15 0
-33 -1 0
-29 -7 0
-21 -2 0
-40 31 0
24 -36 0
7 -37 0
19 25 0
-7 27 0
5 21 0
35 4 0
-25 37 0
-3 -28 0
23 -32 0
7 12 0
-2 30 0
21 -17 0
