c PROBLEM_040_100_22  vars=40  clausulas=100  k=2
p cnf 40 100
-11 -5 0
31 -34 0
26 16 0
-30 32 0
24 9 0
-26 2 0
-14 -13 0
-22 20 0
10 33 0
32 -8 0
-15 -3 0
29 -13 0
-24 -34 0
-25 -23 0
-12 -2 0
6 -11 0
-29 2 0
14 24 0
-18 -4 0
-16 1 0
23 36 0
26 -36 0
-33 21 0
-14 -19 0
16 -13 0
-1 -17 0
-30 -31 0
17 18 0
-5 -9 0
2 39 0
33 2 0
13 27 0
4 1 0
23 -25 0
10 31 0
1 -4 0
9 -26 0
-14 -1 0
-4 -8 0
31 15 0
-40 -15 0
4 -28 0
29 -30 0
-16 29 0
11 37 0
-6 -22 0
-36 -29 0
14 18 0
6 12 0
21 -28 0
-4 13 0
-28 -38 0
-12 -31 0
27 -22 0
9 34 0
37 -33 0
10 27 0
25 16 0
-37 4 0
-27 9 0
26 -16 0
-22 34 0
32 2 0
-19 -3 0
-31 -35 0
18 -25 0
32 3 0
-30 -14 0
-37 39 0
-32 -38 0
-4 -12 0
1 37 0
-39 4 0
39 28 0
2 -1 0
-37 -4 0
-17 -1 0
5 -36 0
-24 21 0
-6 40 0
-20 -30 0
-6 30 0
-7 6 0
-21 -20 0
32 10 0
40 1 0
-40 -13 0
30 26 0
13 23 0
-1 33 0
-11 27 0
21 -38 0
1 14 0
-14 -22 0
-24 -9 0
14 15 0
-22 29 0
6 -3 0
-18 -15 0
-25 -30 0
