c PROBLEM_040_100_01  vars=40  clausulas=100  k=2
p cnf 40 100
8 -17 0
-13 8 0
-5 -25 0
-14 15 0
-9 -35 0
-30 34 0
37 -20 0
24 -28 0
-30 29 0
28 14 0
25 10 0
-27 -35 0
-35 19 0
-24 23 0
-20 34 0
10 -5 0
10 -4 0
5 12 0
-22 18 0
3 -35 0
-16 9 0
-19 18 0
14 39 0
31 2 0
34 28 0
11 29 0
-40 35 0
11 -9 0
-31 13 0
-40 -36 0
-6 -14 0
-7 37 0
2 1 0
27 -12 0
-30 -17 0
26 32 0
-34 5 0
-40 37 0
23 -15 0
14 9 0
27 22 0
18 -10 0
-9 28 0
-18 -7 0
13 -10 0
-34 20 0
1 -36 0
16 -4 0
-31 -16 0
21 -23 0
20 1 0
-25 -8 0
20 -32 0
-40 -24 0
1 33 0
-30 -11 0
32 11 0
-12 -39 0
-39 -38 0
34 37 0
-38 15 0
-27 18 0
24 -4 0
-21 -12 0
-7 -28 0
-34 -31 0
13 8 0
18 14 0
32 -11 0
-12 6 0
6 -37 0
4 -19 0
-16 -28 0
-19 -29 0
-28 -34 0
2 -7 0
38 15 0
-8 13 0
-28 24 0
27 11 0
-35 37 0
21 39 0
-20 17 0
-36 26 0
-21 13 0
38 -32 0
-21 -39 0
1 33 0
32 24 0
-3 7 0
-33 -18 0
-2 22 0
-16 10 0
-20 3 0
11 -15 0
-2 -14 0
-13 -18 0
22 12 0
32 -30 0
22 6 0
