c PROBLEM_040_100_48  vars=40  clausulas=100  k=2
p cnf 40 100
-12 14 0
3 20 0
-28 19 0
-18 29 0
-2 3 0
5 -11 0
11 -7 0
32 7 0
26 -28 0
-29 -35 0
36 -7 0
7 -13 0
-1 -36 0
22 -18 0
20 17 0
32 39 0
-30 -13 0
18 16 0
36 -10 0
19 -11 0
-29 14 0
-11 -32 0
-36 37 0
-8 -36 0
-36 -2 0
28 -9 0
-5 -39 0
-6 -31 0
34 -7 0
-10 -26 0
2 -20 0
12 30 0
31 -34 0
20 -34 0
5 -29 0
1 -24 0
-40 -35 0
-8 29 0
38 -40 0
-27 39 0
27 21 0
19 14 0
36 -40 0
-9 -28 0
-28 7 0
-9 -37 0
-5 -17 0
-22 15 0
18 -39 0
-3 35 0
35 2 0
25 -29 0
-10 6 0
14 -35 0
31 -18 0
27 4 0
12 -8 0
2 -33 0
22 -36 0
15 -23 0
-12 -37 0
23 -38 0
-35 -16 0
-2 -33 0
30 -3 0
-14 -20 0
16 -13 0
-37 31 0
-8 -17 0
-33 5 0
18 34 0
-18 33 0
-34 -1 0
-40 38 0
16 -23 0
34 4 0
-10 5 0
25 -22 0
-9 -30 0
35 26 0
-40 -31 0
-28 5 0
23 -18 0
23 6 0
39 4 0
-14 -6 0
-35 -37 0
25 33 0
39 -26 0
-33 20 0
35 22 0
28 -20 0
18 -35 0
17 -10 0
-10 38 0
5 -10 0
26 20 0
21 22 0
-28 35 0
28 -8 0
