c PROBLEM_040_100_06  vars=40  clausulas=100  k=2
p cnf 40 100
-13 30 0
22 -40 0
-16 -5 0
-37 -6 0
40 -25 0
-19 -24 0
1 30 0
15 24 0
-19 33 0
7 40 0
-8 -21 0
29 -26 0
-8 -3 0
-37 36 0
8 -27 0
-20 -26 0
31 -32 0
-37 -27 0
35 -11 0
-5 -26 0
-24 1 0
23 15 0
-33 27 0
33 27 0
34 5 0
-16 -35 0
-26 -12 0
-36 14 0
-35 7 0
-9 40 0
7 27 0
39 3 0
25 -37 0
-13 -5 0
-6 18 0
-29 -36 0
-1 16 0
34 33 0
31 12 0
24 18 0
1 -37 0
10 -39 0
-5 -25 0
11 17 0
7 29 0
-39 17 0
-21 25 0
-28 -3 0
-12 10 0
-1 40 0
39 -5 0
-9 22 0
-34 -37 0
9 -2 0
35 10 0
-9 -3 0
-24 -3 0
-3 33 0
-7 -2 0
38 27 0
10 12 0
5 18 0
-35 40 0
-28 -6 0
36 -22 0
-20 16 0
1 -36 0
-36 4 0
-31 -17 0
-15 26 0
-6 3 0
9 -32 0
-29 -24 0
-24 33 0
-33 27 0
-22 -37 0
9 -1 0
-16 40 0
9 -35 0
-16 -6 0
2 6 0
29 16 0
-13 18 0
2 37 0
6 17 0
37 40 0
-35 17 0
31 16 0
30 -15 0
-9 25 0
-4 31 0
-38 -33 0
14 15 0
-19 15 0
-28 38 0
7 -4 0
-35 12 0
-35 -16 0
-40 25 0
-19 25 0
