c PROBLEM_040_100_16  vars=40  clausulas=100  k=2
p cnf 40 100
-24 -13 0
5 -1 0
-25 -15 0
-6 15 0
-12 -10 0
18 5 0
20 -31 0
27 10 0
37 -23 0
19 -5 0
5 -21 0
4 -33 0
12 -31 0
-24 12 0
12 -38 0
-36 22 0
-27 -35 0
-24 -28 0
-39 -37 0
-8 -7 0
-37 -11 0
-5 -1 0
4 -32 0
-18 34 0
2 -27 0
-37 -15 0
-15 -18 0
-19 32 0
-15 -35 0
-35 31 0
3 7 0
-40 -21 0
-19 17 0
-2 38 0
31 21 0
-20 34 0
-5 14 0
-5 8 0
14 15 0
-6 19 0
-32 37 0
-11 16 0
-32 -21 0
37 28 0
22 -14 0
25 -11 0
-13 -15 0
-30 16 0
-24 -28 0
-26 -33 0
36 -31 0
30 -13 0
16 14 0
-17 2 0
-40 36 0
9 40 0
-11 35 0
7 22 0
10 -7 0
39 -13 0
37 -10 0
6 -34 0
-19 15 0
34 17 0
2 33 0
-4 -33 0
-5 -13 0
-19 39 0
25 17 0
5 28 0
-38 15 0
9 -36 0
29 22 0
-33 -5 0
-39 -28 0
-22 31 0
-30 13 0
-8 -12 0
-36 -38 0
32 16 0
-9 -4 0
36 -19 0
-35 -19 0
13 12 0
35 29 0
-23 -40 0
-10 -6 0
-16 3 0
19 -40 0
1 18 0
4 3 0
2 -14 0
-29 -11 0
-14 3 0
-19 -2 0
34 -32 0
-16 22 0
-5 -19 0
-32 -9 0
19 6 0
