c PROBLEM_040_100_14  vars=40  clausulas=100  k=2
p cnf 40 100
-25 9 0
-1 -18 0
29 12 0
15 -28 0
40 -2 0
32 -22 0
-37 -34 0
34 -7 0
35 38 0
3 -34 0
-23 -37 0
33 -40 0
-2 -5 0
33 -29 0
-20 12 0
11 -18 0
13 -19 0
-2 -3 0
-20 -40 0
-12 28 0
-21 -14 0
14 25 0
-35 20 0
-5 37 0
36 4 0
-33 -24 0
-30 14 0
-23 -8 0
-22 -7 0
25 16 0
39 38 0
-19 -1 0
-35 5 0
-7 35 0
5 -10 0
-4 38 0
15 -39 0
-14 -16 0
-16 3 0
-16 -33 0
21 37 0
21 -16 0
31 3 0
-38 -20 0
-12 19 0
-1 -38 0
2 -36 0
-18 10 0
-17 4 0
-35 18 0
23 13 0
-33 26 0
23 -7 0
-32 -31 0
21 -2 0
20 40 0
-23 26 0
12 -18 0
-17 7 0
25 -19 0
-10 -28 0
14 -7 0
-26 33 0
-1 -35 0
-17 -1 0
5 -12 0
2 35 0
-24 -26 0
14 -19 0
-24 -2 0
-12 -20 0
15 -6 0
8 38 0
8 -17 0
10 38 0
-19 11 0
14 -35 0
-33 -35 0
-38 24 0
34 35 0
-1 32 0
-13 28 0
-19 -10 0
11 9 0
22 27 0
-27 10 0
40 8 0
15 29 0
33 4 0
6 -39 0
19 13 0
-8 -29 0
15 16 0
32 30 0
-1 5 0
-24 1 0
11 -21 0
-3 21 0
11 7 0
-3 -28 0
