c PROBLEM_040_100_17  vars=40  clausulas=100  k=2
p cnf 40 100
15 -25 0
-17 35 0
-25 -22 0
20 33 0
33 18 0
14 8 0
10 21 0
-35 3 0
-2 -27 0
-26 -12 0
-10 4 0
-6 -28 0
-4 -8 0
-20 22 0
-24 -37 0
39 30 0
20 5 0
6 34 0
8 32 0
22 11 0
13 1 0
12 30 0
-10 2 0
-14 -38 0
10 -26 0
-13 9 0
14 6 0
4 15 0
22 -40 0
18 -31 0
20 -33 0
19 -11 0
-31 -34 0
-4 8 0
7 -23 0
39 36 0
29 -20 0
32 10 0
15 -18 0
-31 -33 0
15 -18 0
-36 -32 0
-37 5 0
-22 -40 0
15 7 0
2 -3 0
-21 22 0
-15 -5 0
-16 -37 0
11 -24 0
-3 27 0
-9 20 0
-11 4 0
-4 12 0
26 -37 0
40 12 0
10 -33 0
-31 -2 0
27 -19 0
19 -4 0
-30 28 0
-6 33 0
30 -38 0
-13 -6 0
-36 -6 0
16 31 0
6 36 0
30 9 0
30 -39 0
35 -31 0
39 17 0
34 31 0
-34 20 0
-27 -33 0
-15 -7 0
21 -15 0
35 28 0
-29 -37 0
39 28 0
12 38 0
6 23 0
-32 -23 0
34 -26 0
30 17 0
-8 24 0
25 -34 0
-13 17 0
30 4 0
8 15 0
4 2 0
-21 -10 0
-18 -32 0
-33 35 0
-11 -26 0
-35 -11 0
-16 -18 0
8 4 0
37 38 0
-22 -35 0
39 -6 0
