c PROBLEM_040_100_08  vars=40  clausulas=100  k=2
p cnf 40 100
-21 13 0
3 40 0
21 7 0
-8 26 0
-11 37 0
3 16 0
24 -40 0
-10 -39 0
-20 -27 0
3 -9 0
24 13 0
37 -28 0
39 -18 0
-19 -25 0
38 -2 0
-35 31 0
38 -2 0
-24 19 0
11 12 0
-31 4 0
-17 -29 0
-26 -6 0
-39 -28 0
-33 -35 0
-23 -29 0
-21 -26 0
34 27 0
-27 32 0
-34 16 0
-8 16 0
-28 33 0
-25 10 0
6 3 0
-16 30 0
23 12 0
4 -28 0
8 13 0
23 28 0
31 -30 0
4 11 0
-32 -26 0
-31 23 0
25 22 0
7 -21 0
-29 -15 0
14 -4 0
29 -31 0
-1 4 0
-17 -6 0
35 -20 0
-8 1 0
27 -12 0
22 -10 0
4 -40 0
-8 18 0
3 -19 0
2 -28 0
33 -25 0
38 37 0
23 -1 0
-38 20 0
8 27 0
12 -10 0
40 -5 0
21 -15 0
14 -10 0
-3 -9 0
-39 -15 0
23 -19 0
-13 -18 0
-22 35 0
38 36 0
-12 6 0
-21 33 0
-15 12 0
29 4 0
-22 -10 0
-5 23 0
-20 17 0
17 6 0
7 -32 0
-16 -26 0
28 -18 0
-17 -36 0
13 2 0
-39 -5 0
-37 27 0
-29 -35 0
39 -22 0
-25 -27 0
-31 -5 0
-26 7 0
-2 -22 0
-37 36 0
32 -3 0
-16 -26 0
-27 26 0
15 -19 0
-21 -14 0
39 -16 0
