c PROBLEM_040_100_31  vars=40  clausulas=100  k=2
p cnf 40 100
-7 29 0
-24 3 0
-14 10 0
-15 31 0
26 -11 0
3 39 0
31 9 0
-38 -26 0
16 -20 0
35 10 0
-28 15 0
-40 -11 0
-20 29 0
7 -9 0
26 -23 0
-23 10 0
-32 18 0
4 23 0
8 -13 0
-4 -22 0
-28 -16 0
34 8 0
-15 3 0
37 14 0
-6 37 0
-40 -38 0
-2 16 0
-8 -19 0
-37 -35 0
27 30 0
18 -21 0
23 -3 0
8 29 0
-19 -34 0
23 -32 0
-15 -22 0
-36 -9 0
-13 -4 0
-4 29 0
26 15 0
-31 -12 0
-6 -21 0
13 16 0
-38 30 0
-8 1 0
8 37 0
18 -22 0
19 18 0
-32 -35 0
36 33 0
26 -1 0
3 -16 0
-34 20 0
17 10 0
21 -29 0
-37 6 0
-34 -19 0
-9 6 0
-29 12 0
16 11 0
5 -39 0
-39 -40 0
-2 20 0
12 -1 0
39 37 0
-20 25 0
-7 19 0
29 -28 0
18 -3 0
-3 15 0
36 11 0
6 2 0
-33 -38 0
29 4 0
-27 -1 0
-27 36 0
11 -3 0
31 -37 0
30 9 0
-1 31 0
27 38 0
7 10 0
-3 -30 0
-24 14 0
9 -11 0
19 32 0
-33 15 0
4 -23 0
-3 14 0
5 -13 0
18 -33 0
8 -35 0
-3 15 0
-28 33 0
-25 26 0
-10 -34 0
-28 19 0
-35 -5 0
-33 -6 0
-16 12 0
