c PROBLEM_040_100_32  vars=40  clausulas=100  k=2
p cnf 40 100
3 12 0
-22 -24 0
-5 -14 0
-25 24 0
-12 11 0
27 -13 0
-2 32 0
38 -12 0
-34 -36 0
-12 34 0
5 17 0
30 7 0
-31 -25 0
38 -27 0
-22 -36 0
24 25 0
-29 -38 0
7 37 0
-18 31 0
-40 20 0
16 23 0
-35 -25 0
-4 10 0
32 14 0
-26 9 0
-36 27 0
40 -19 0
-34 30 0
-16 11 0
25 -31 0
39 -8 0
-15 22 0
-34 19 0
5 37 0
-28 -21 0
28 30 0
17 40 0
-26 37 0
25 -19 0
40 30 0
-4 9 0
-13 -23 0
-38 15 0
22 -27 0
39 -32 0
29 -15 0
36 -29 0
31 34 0
-21 33 0
14 19 0
-25 17 0
39 -20 0
-31 36 0
-12 36 0
-39 7 0
17 19 0
-12 20 0
31 33 0
-6 21 0
-13 34 0
-5 4 0
-18 -7 0
9 -1 0
23 30 0
-20 -18 0
-32 18 0
-10 15 0
-2 -23 0
10 21 0
-10 2 0
20 16 0
19 -37 0
35 -30 0
-3 -10 0
-19 -3 0
-37 -7 0
-22 9 0
24 3 0
-23 11 0
37 -38 0
-22 -12 0
30 14 0
-23 -39 0
23 -33 0
-7 20 0
16 -37 0
37 -34 0
13 24 0
23 25 0
6 24 0
12 4 0
11 -7 0
15 20 0
3 -7 0
16 20 0
26 -17 0
-34 -11 0
2 -22 0
-9 -10 0
-12 29 0
