c PROBLEM_040_100_46  vars=40  clausulas=100  k=2
p cnf 40 100
8 32 0
38 -17 0
15 1 0
-21 -6 0
-24 25 0
-32 -23 0
31 3 0
-1 22 0
-34 40 0
-3 -22 0
1 -14 0
13 34 0
-19 -22 0
-31 13 0
-7 13 0
11 -18 0
-21 -5 0
29 15 0
-19 -11 0
20 -16 0
25 18 0
10 -29 0
26 -23 0
-23 9 0
-15 -21 0
-39 13 0
36 31 0
17 27 0
-9 -26 0
2 31 0
-18 20 0
21 -36 0
30 -3 0
-10 40 0
37 27 0
9 25 0
-36 21 0
-10 31 0
-1 3 0
-20 6 0
9 -2 0
-4 -35 0
29 -19 0
11 8 0
15 -22 0
-14 17 0
-2 -33 0
-34 2 0
-19 -27 0
37 -29 0
22 8 0
26 10 0
21 -35 0
-2 -24 0
9 21 0
10 -35 0
-28 -7 0
37 -20 0
4 7 0
-21 40 0
34 -4 0
14 39 0
-21 -40 0
16 30 0
-36 -18 0
19 -4 0
10 34 0
-24 22 0
37 5 0
-30 -16 0
-3 -28 0
-17 8 0
-22 40 0
-33 17 0
-3 20 0
40 -13 0
-2 16 0
32 -21 0
33 28 0
-11 -13 0
-37 25 0
-2 16 0
-7 38 0
-9 -19 0
4 34 0
-24 8 0
35 12 0
-9 7 0
-13 30 0
9 11 0
-28 5 0
-36 -4 0
-21 7 0
26 27 0
27 -3 0
-18 5 0
10 23 0
-28 10 0
-4 -29 0
-8 34 0
