c PROBLEM_040_100_37  vars=40  clausulas=100  k=2
p cnf 40 100
-30 -14 0
-28 12 0
21 -34 0
4 17 0
24 -13 0
-38 -35 0
3 4 0
-31 -38 0
32 21 0
33 1 0
25 -20 0
-34 40 0
-11 -27 0
20 9 0
-24 9 0
23 -14 0
-10 -37 0
-26 27 0
39 -17 0
7 3 0
-37 -21 0
37 33 0
-29 -28 0
-2 -17 0
-22 1 0
35 -27 0
1 6 0
-37 33 0
13 -40 0
19 4 0
-28 -7 0
12 -40 0
23 -32 0
-20 27 0
26 -2 0
10 -36 0
-28 -23 0
-16 -36 0
-39 -24 0
17 -13 0
-16 -19 0
39 -35 0
1 -8 0
-34 -35 0
8 21 0
22 25 0
-22 -12 0
-7 -10 0
-14 26 0
-34 -37 0
-20 -38 0
37 -15 0
29 -16 0
-17 19 0
8 -31 0
-32 37 0
15 -31 0
-34 5 0
30 22 0
6 -27 0
-4 -12 0
15 -5 0
-32 6 0
23 36 0
11 -13 0
34 4 0
-36 -2 0
-20 37 0
-12 -11 0
-1 21 0
-35 34 0
24 -28 0
-18 -13 0
-22 40 0
-11 -24 0
1 4 0
25 16 0
2 6 0
34 -15 0
27 -19 0
2 34 0
-40 10 0
-7 35 0
11 5 0
-10 -22 0
38 6 0
-38 -20 0
1 -6 0
-14 13 0
7 -29 0
2 12 0
-5 -17 0
14 21 0
-21 39 0
21 -33 0
12 7 0
19 17 0
-27 18 0
-25 33 0
-33 -9 0
