c PROBLEM_040_100_11  vars=40  clausulas=100  k=2
p cnf 40 100
-15 36 0
31 30 0
-6 -13 0
6 -39 0
-11 -20 0
-16 -13 0
-25 5 0
16 -28 0
25 -16 0
29 -36 0
38 -11 0
-32 14 0
-39 3 0
-32 11 0
24 -29 0
35 22 0
3 -19 0
1 -2 0
22 16 0
25 12 0
-39 -13 0
19 -23 0
-2 30 0
34 5 0
33 -9 0
23 -31 0
26 -2 0
7 8 0
21 -2 0
2 -12 0
-2 3 0
-3 -28 0
14 -11 0
7 -18 0
11 -38 0
-23 -28 0
-13 25 0
-16 -37 0
31 16 0
19 38 0
20 -5 0
28 25 0
-31 -8 0
-21 1 0
-20 -16 0
-11 -19 0
-38 5 0
-38 -4 0
-7 -22 0
-28 -23 0
11 -3 0
-37 26 0
13 -32 0
-19 -6 0
-32 -5 0
31 -19 0
40 10 0
-34 8 0
27 4 0
28 -20 0
-13 6 0
-1 17 0
8 6 0
-37 21 0
-23 -5 0
-3 32 0
37 18 0
-30 -40 0
5 -36 0
13 40 0
-29 -14 0
-33 40 0
32 -8 0
6 -2 0
36 -11 0
38 5 0
24 -17 0
-16 -11 0
-19 -2 0
16 -5 0
13 -10 0
-17 35 0
18 -33 0
-35 4 0
-23 8 0
-18 35 0
37 -28 0
-12 -14 0
26 14 0
28 -35 0
15 11 0
-6 11 0
9 30 0
34 8 0
-15 -33 0
21 -23 0
27 17 0
-26 -4 0
17 14 0
-1 -25 0
