c PROBLEM_040_100_47  vars=40  clausulas=100  k=2
p cnf 40 100
-4 36 0
-20 -18 0
9 4 0
6 -33 0
-3 -8 0
-8 1 0
28 31 0
6 8 0
-16 27 0
1 36 0
16 33 0
-20 22 0
-22 29 0
10 23 0
18 21 0
19 -16 0
15 29 0
20 37 0
-9 31 0
-15 -12 0
9 21 0
-4 22 0
4 6 0
22 -28 0
13 -15 0
24 -5 0
16 -9 0
31 -37 0
-30 40 0
11 25 0
-30 29 0
36 -10 0
-5 10 0
-12 29 0
-17 -32 0
-21 25 0
35 -13 0
-35 37 0
-39 24 0
40 17 0
29 -4 0
-19 3 0
-38 31 0
-37 22 0
-15 5 0
-36 -5 0
-5 2 0
24 -34 0
-4 38 0
-11 -12 0
-8 -10 0
-37 -18 0
-5 -26 0
-35 34 0
-32 -36 0
21 39 0
37 32 0
-14 36 0
-22 -35 0
-38 -11 0
26 -6 0
25 -4 0
4 39 0
-12 -36 0
-39 -40 0
5 -40 0
-39 11 0
-33 25 0
-38 -1 0
30 -8 0
-29 -28 0
22 -21 0
-29 -23 0
-15 -39 0
40 -3 0
36 -1 0
10 25 0
13 -33 0
-18 -32 0
-25 -38 0
-29 16 0
-27 1 0
10 22 0
-12 29 0
6 37 0
-35 -9 0
21 -28 0
-10 -3 0
17 25 0
25 -36 0
-3 26 0
10 -14 0
-16 -19 0
13 -32 0
13 33 0
-24 26 0
-9 -10 0
7 -29 0
-32 40 0
8 -22 0
