c PROBLEM_040_100_36  vars=40  clausulas=100  k=2
p cnf 40 100
18 -23 0
38 9 0
-31 17 0
-40 36 0
7 -14 0
-32 30 0
-1 17 0
36 35 0
-27 36 0
-16 32 0
-18 23 0
-5 3 0
4 17 0
-34 10 0
-7 -12 0
-28 -32 0
6 -35 0
5 -38 0
34 36 0
-25 34 0
21 12 0
8 -37 0
36 -6 0
-26 24 0
-14 18 0
34 -8 0
12 7 0
-35 -36 0
12 9 0
34 -11 0
3 -31 0
18 -5 0
13 25 0
15 -3 0
28 3 0
-14 15 0
37 9 0
-8 -39 0
-26 -31 0
-32 6 0
37 16 0
28 -39 0
-20 40 0
-13 39 0
40 20 0
-17 12 0
11 -19 0
-28 33 0
2 -21 0
-19 3 0
-6 -15 0
2 13 0
17 -26 0
-5 13 0
15 -3 0
17 -27 0
-6 -11 0
31 -12 0
16 -24 0
-23 -35 0
-17 12 0
22 -8 0
27 -14 0
30 21 0
16 29 0
-12 9 0
33 40 0
-3 -39 0
14 26 0
-22 -2 0
-21 -22 0
32 38 0
-40 -32 0
23 -20 0
34 -23 0
32 -15 0
-38 -24 0
-29 35 0
-27 -3 0
-2 -1 0
-13 11 0
-24 -31 0
-23 -5 0
8 -22 0
18 8 0
2 -11 0
-21 12 0
-12 13 0
-40 11 0
-5 -12 0
-38 -26 0
28 20 0
14 -17 0
34 5 0
-37 38 0
-17 25 0
16 -22 0
-16 24 0
4 -9 0
8 10 0
