c PROBLEM_040_100_40  vars=40  clausulas=100  k=2
p cnf 40 100
19 8 0
7 8 0
35 38 0
39 -38 0
-26 19 0
18 -4 0
-29 8 0
11 -29 0
-5 22 0
-11 20 0
39 -19 0
-18 -3 0
34 -14 0
-31 11 0
10 -5 0
5 -29 0
-22 37 0
-37 36 0
25 8 0
11 22 0
-7 37 0
-38 31 0
-3 27 0
-4 -3 0
-6 -33 0
7 20 0
32 31 0
12 35 0
-19 27 0
-33 28 0
35 -15 0
3 24 0
19 35 0
-2 22 0
39 8 0
8 -35 0
-12 -7 0
35 -24 0
-11 -2 0
-9 5 0
4 -34 0
32 -26 0
40 -1 0
2 -12 0
17 26 0
9 38 0
22 5 0
-5 18 0
6 -4 0
2 17 0
-23 -27 0
21 30 0
30 -28 0
-36 -4 0
34 -20 0
28 21 0
9 -31 0
-11 -25 0
-16 -17 0
9 -38 0
-19 -11 0
-3 -27 0
32 -36 0
-18 -28 0
-22 15 0
-38 29 0
-8 29 0
-6 -15 0
-30 6 0
5 14 0
36 24 0
-39 36 0
19 -7 0
-6 -15 0
-39 -3 0
25 -13 0
-10 13 0
-32 12 0
-7 21 0
-23 -2 0
-34 -38 0
24 3 0
19 -10 0
16 23 0
20 -39 0
16 25 0
-17 4 0
13 21 0
-28 32 0
16 -2 0
-18 -26 0
-21 -5 0
-12 28 0
16 1 0
6 -28 0
16 9 0
21 -24 0
-23 1 0
27 -10 0
-15 -34 0
