c PROBLEM_040_100_24  vars=40  clausulas=100  k=2
p cnf 40 100
25 34 0
-23 5 0
37 -4 0
31 29 0
-3 35 0
-28 -34 0
17 -18 0
-18 -29 0
29 -25 0
26 -31 0
2 -40 0
30 -37 0
-5 36 0
-1 -4 0
-35 40 0
-36 26 0
-6 -21 0
7 -20 0
28 -29 0
-15 -31 0
22 -39 0
-5 10 0
11 -17 0
-19 17 0
6 -12 0
38 -16 0
-20 -7 0
39 -23 0
-40 -6 0
4 -40 0
8 6 0
32 35 0
-24 -29 0
16 9 0
5 25 0
-19 30 0
-5 34 0
-18 -11 0
-11 16 0
-30 26 0
-35 17 0
-30 -35 0
4 19 0
1 10 0
3 24 0
-20 -35 0
-15 -2 0
-21 -5 0
-30 -18 0
-1 20 0
-11 2 0
-39 -32 0
-27 -30 0
37 6 0
-35 -24 0
-1 35 0
15 -24 0
6 -7 0
13 -19 0
-30 9 0
-31 -4 0
30 16 0
37 31 0
-33 17 0
-1 23 0
-33 10 0
20 9 0
-21 -11 0
-3 31 0
6 20 0
27 24 0
-10 -19 0
38 6 0
30 29 0
-27 -20 0
24 -14 0
6 -35 0
3 10 0
-25 18 0
-14 25 0
-4 -5 0
-35 -22 0
-31 -17 0
8 -21 0
36 35 0
20 35 0
-40 -32 0
23 -35 0
-38 16 0
10 -3 0
33 14 0
-39 -32 0
22 -14 0
35 2 0
-21 -27 0
-35 40 0
4 -30 0
13 2 0
-21 -14 0
39 -27 0
