c PROBLEM_040_100_38  vars=40  clausulas=100  k=2
p cnf 40 100
33 -32 0
12 39 0
-10 34 0
-20 37 0
-15 28 0
28 24 0
-5 7 0
39 -7 0
37 12 0
-11 35 0
8 11 0
-35 31 0
15 16 0
-23 32 0
33 -27 0
-39 17 0
5 -19 0
9 -22 0
-31 37 0
-36 -40 0
-39 25 0
20 5 0
30 -20 0
34 17 0
-16 -14 0
-29 -6 0
17 -25 0
-29 -24 0
-29 -13 0
-25 10 0
-34 13 0
-29 34 0
26 9 0
7 31 0
-28 -17 0
40 22 0
36 15 0
40 -32 0
15 34 0
-34 -18 0
-16 -11 0
4 -24 0
18 -2 0
-1 -26 0
-34 -29 0
-13 -17 0
-34 6 0
1 -24 0
-6 -3 0
21 -8 0
-30 -19 0
-4 -7 0
-30 12 0
-27 3 0
31 -35 0
23 25 0
23 36 0
12 20 0
-15 38 0
-36 -26 0
-10 -2 0
-24 -1 0
-22 -9 0
-30 -25 0
-8 18 0
26 13 0
-25 5 0
40 15 0
-7 19 0
-11 2 0
-9 -26 0
-1 -31 0
1 -37 0
-5 26 0
19 -26 0
-4 -6 0
-17 -2 0
-28 15 0
23 35 0
-39 33 0
-22 -35 0
-37 40 0
27 29 0
-18 5 0
-17 -24 0
-39 18 0
-26 -25 0
30 -28 0
-21 16 0
3 -38 0
5 10 0
6 -33 0
-33 -26 0
-6 -14 0
-2 -22 0
-37 -40 0
-4 -3 0
-15 -31 0
-13 -19 0
15 -16 0
