c PROBLEM_040_100_29  vars=40  clausulas=100  k=2
p cnf 40 100
-20 -23 0
3 -26 0
-1 33 0
9 1 0
22 10 0
-38 -16 0
-35 22 0
19 40 0
23 15 0
11 36 0
-14 8 0
-23 37 0
31 17 0
24 -23 0
28 35 0
-20 9 0
13 -35 0
34 5 0
7 12 0
-34 -13 0
-1 -5 0
-6 -27 0
13 31 0
-16 2 0
10 -31 0
-18 17 0
-19 -39 0
-30 -8 0
-30 25 0
9 10 0
33 -8 0
33 -24 0
-20 -37 0
21 33 0
35 31 0
8 -5 0
-29 -14 0
24 -40 0
-20 15 0
30 -18 0
-8 1 0
18 12 0
-4 17 0
40 31 0
-37 -9 0
-37 4 0
-21 27 0
-1 15 0
-26 4 0
38 -35 0
-9 34 0
-2 -26 0
-24 -11 0
24 29 0
-37 -18 0
-2 -36 0
-11 21 0
16 17 0
7 -16 0
-13 -6 0
-28 -32 0
-11 19 0
30 32 0
-14 -29 0
-1 14 0
-39 -14 0
23 -4 0
36 -15 0
-15 17 0
24 28 0
22 -9 0
17 -33 0
36 -7 0
-5 26 0
20 31 0
-2 -4 0
20 -16 0
23 6 0
-5 21 0
-3 -29 0
40 12 0
31 7 0
-30 -3 0
-30 -15 0
30 38 0
25 -10 0
-26 36 0
18 -28 0
27 -9 0
-16 -10 0
38 17 0
-39 23 0
-39 -1 0
34 26 0
-23 29 0
-35 21 0
16 34 0
5 6 0
-3 -18 0
-38 15 0
