c PROBLEM_070_070_28  vars=70  clausulas=70  k=2
p cnf 70 70
15 -54 0
57 69 0
66 29 0
62 38 0
35 -60 0
9 -55 0
-2 3 0
-67 22 0
31 26 0
-57 -36 0
7 -5 0
-23 -51 0
64 46 0
58 -63 0
-63 52 0
19 -43 0
-30 -22 0
-65 -27 0
-9 29 0
-18 21 0
5 -1 0
-4 -12 0
-62 44 0
-39 -26 0
39 -27 0
53 -33 0
22 1 0
23 -6 0
40 -28 0
45 50 0
36 70 0
22 9 0
41 44 0
49 5 0
55 -14 0
34 -58 0
-37 -60 0
-29 -11 0
58 34 0
52 61 0
-56 -10 0
-3 -7 0
-25 -20 0
-13 -41 0
14 42 0
-30 -39 0
10 -45 0
9 10 0
7 -57 0
36 43 0
-70 3 0
-61 -6 0
-69 53 0
-65 -37 0
-49 43 0
40 -7 0
13 -15 0
17 -49 0
18 24 0
-35 -59 0
40 38 0
-5 16 0
-62 24 0
-32 69 0
47 -52 0
-1 -48 0
52 -18 0
67 -14 0
-68 52 0
25 8 0
