c PROBLEM_070_070_24  vars=70  clausulas=70  k=2
p cnf 70 70
55 8 0
-55 -35 0
-35 -66 0
33 -9 0
42 15 0
-55 -16 0
-54 15 0
-21 -43 0
21 -27 0
70 -17 0
-31 -67 0
45 5 0
61 -14 0
44 17 0
56 -60 0
32 19 0
-19 -7 0
24 30 0
11 -14 0
-9 25 0
-58 -32 0
-5 70 0
-47 -26 0
65 -32 0
64 26 0
1 48 0
-19 -39 0
-39 49 0
-44 37 0
-67 50 0
30 70 0
-17 -62 0
55 -25 0
-35 -26 0
54 8 0
40 2 0
-69 -65 0
53 13 0
-52 -26 0
-64 -59 0
57 -36 0
46 -53 0
40 16 0
-68 18 0
11 -29 0
69 66 0
-4 37 0
-54 -55 0
1 63 0
51 -48 0
-34 -25 0
-47 33 0
-68 -32 0
9 51 0
41 -17 0
-65 7 0
56 60 0
-54 34 0
67 65 0
-7 26 0
3 40 0
22 20 0
-18 -37 0
-7 -37 0
-35 -23 0
28 -25 0
-6 -51 0
38 -31 0
10 -18 0
10 12 0
