c PROBLEM_070_070_42  vars=70  clausulas=70  k=2
p cnf 70 70
64 46 0
37 9 0
-16 10 0
-61 -51 0
5 3 0
35 -52 0
54 60 0
-4 -68 0
-67 -20 0
45 -69 0
-1 32 0
-38 -35 0
-52 -68 0
26 -11 0
-39 -34 0
-38 56 0
-62 -40 0
-13 24 0
18 51 0
27 53 0
-18 8 0
9 24 0
16 -69 0
-25 -39 0
-22 48 0
30 27 0
-3 -62 0
54 47 0
6 40 0
45 25 0
-54 22 0
-59 20 0
-62 48 0
-59 -7 0
-36 14 0
15 -29 0
-34 36 0
-31 -69 0
-28 -65 0
20 -11 0
-6 -12 0
-38 31 0
-30 -23 0
60 66 0
-30 21 0
50 35 0
-70 -38 0
2 -38 0
24 33 0
-51 61 0
42 -47 0
-62 -23 0
-49 65 0
-55 -7 0
-33 -68 0
-11 25 0
28 24 0
-43 -56 0
19 49 0
6 29 0
-27 57 0
58 4 0
41 -47 0
-17 -70 0
13 -44 0
-62 -18 0
19 70 0
-46 69 0
-63 58 0
-5 -67 0
