c PROBLEM_070_070_11  vars=70  clausulas=70  k=2
p cnf 70 70
25 -19 0
7 68 0
28 50 0
-11 48 0
-15 -64 0
28 -5 0
14 -3 0
70 14 0
-34 -21 0
-62 -30 0
53 -19 0
-16 -18 0
52 38 0
64 -54 0
13 -35 0
57 -40 0
64 -5 0
-5 -37 0
51 66 0
4 -24 0
53 64 0
-27 -23 0
35 -42 0
-29 28 0
-53 32 0
55 -50 0
-20 -18 0
69 -61 0
-12 -21 0
34 29 0
-67 21 0
22 -33 0
-20 -61 0
22 62 0
-46 -45 0
-47 -33 0
-48 -56 0
2 11 0
-26 -40 0
63 60 0
-1 -67 0
17 57 0
56 11 0
-20 18 0
-59 39 0
-49 6 0
-15 44 0
17 -66 0
33 65 0
-56 -58 0
-15 -51 0
-7 43 0
-38 13 0
-8 41 0
13 39 0
-9 -31 0
59 -7 0
21 53 0
-61 -50 0
-27 -29 0
-27 -49 0
-65 4 0
-15 42 0
59 -52 0
-47 -5 0
-3 -61 0
-36 69 0
4 -22 0
57 -7 0
44 -10 0
