c PROBLEM_070_070_19  vars=70  clausulas=70  k=2
p cnf 70 70
57 11 0
58 65 0
-62 -50 0
-58 -1 0
-8 23 0
28 23 0
-57 62 0
-50 3 0
17 37 0
-9 -60 0
51 -20 0
-59 55 0
28 57 0
-70 40 0
5 19 0
-23 39 0
-21 -44 0
-66 32 0
-50 61 0
25 3 0
-1 49 0
42 66 0
53 -28 0
-44 -30 0
56 -35 0
-36 27 0
39 -22 0
-6 -36 0
18 -16 0
-44 -14 0
18 -47 0
-14 4 0
24 1 0
-19 -8 0
25 9 0
-9 26 0
14 -29 0
-22 -39 0
60 -29 0
69 -13 0
-64 -67 0
38 -34 0
33 7 0
21 62 0
-7 -6 0
54 -38 0
-18 -15 0
14 63 0
-37 -54 0
42 20 0
54 -35 0
22 -68 0
64 -38 0
-43 -40 0
25 -56 0
31 46 0
-11 -53 0
-42 -34 0
-60 49 0
-27 52 0
-40 12 0
-48 -2 0
45 41 0
53 4 0
28 -5 0
-34 51 0
22 28 0
45 -15 0
40 -39 0
-10 16 0
