c PROBLEM_070_070_34  vars=70  clausulas=70  k=2
p cnf 70 70
41 47 0
-7 20 0
29 58 0
1 55 0
51 14 0
44 -37 0
68 41 0
42 -8 0
-25 39 0
-31 -23 0
-33 -29 0
21 -62 0
53 -17 0
-66 18 0
-60 -69 0
12 -44 0
24 -56 0
6 -61 0
5 -12 0
-50 -9 0
-49 -26 0
-40 -30 0
58 -54 0
-54 61 0
67 -70 0
52 -18 0
22 6 0
38 48 0
57 -26 0
66 57 0
22 -55 0
-27 -3 0
-65 5 0
32 50 0
10 57 0
36 -51 0
1 46 0
-12 60 0
25 34 0
-66 39 0
14 -42 0
21 46 0
35 -18 0
39 64 0
-47 20 0
16 -28 0
-45 63 0
-24 -70 0
-2 19 0
59 5 0
-11 20 0
64 26 0
43 35 0
39 4 0
30 24 0
1 -36 0
-3 52 0
-34 10 0
31 -2 0
22 -1 0
-24 -66 0
63 -62 0
46 -40 0
20 -22 0
67 65 0
20 56 0
13 -8 0
-23 -6 0
7 13 0
-45 -15 0
