c PROBLEM_070_070_33  vars=70  clausulas=70  k=2
p cnf 70 70
10 49 0
54 24 0
-50 -6 0
19 45 0
-14 -54 0
-39 -36 0
-56 46 0
57 -15 0
-35 -53 0
52 -69 0
-30 43 0
6 14 0
64 -62 0
70 -38 0
-7 -32 0
19 15 0
57 1 0
46 -54 0
-24 -19 0
50 -39 0
-14 -13 0
-17 -60 0
-25 -17 0
23 -36 0
-14 23 0
51 22 0
-47 -63 0
23 65 0
-35 48 0
-21 15 0
6 61 0
26 50 0
-23 -57 0
-26 4 0
31 50 0
57 -55 0
27 -30 0
35 -2 0
68 -14 0
29 -67 0
-8 -46 0
-25 -31 0
-43 50 0
4 -40 0
61 -60 0
-1 -16 0
46 -35 0
37 63 0
25 -15 0
60 -27 0
-9 -3 0
2 -41 0
-64 65 0
11 47 0
-55 67 0
-11 -58 0
25 -70 0
-3 44 0
-33 66 0
-56 28 0
45 -58 0
-12 34 0
-7 4 0
51 59 0
33 -39 0
-53 22 0
-20 5 0
-52 42 0
-11 36 0
18 -56 0
