c PROBLEM_070_070_47  vars=70  clausulas=70  k=2
p cnf 70 70
-28 -44 0
-19 4 0
47 20 0
21 -12 0
-38 -48 0
-50 -3 0
-1 42 0
27 -46 0
11 -25 0
33 58 0
-55 39 0
6 -16 0
-26 2 0
29 -3 0
30 63 0
29 61 0
41 -9 0
-50 -7 0
-59 66 0
-51 -17 0
-61 6 0
-6 -5 0
56 -50 0
-28 70 0
-23 21 0
-61 39 0
70 -53 0
-55 63 0
10 22 0
-70 -52 0
12 18 0
-54 -20 0
-59 20 0
23 46 0
-60 -36 0
-57 -64 0
23 -42 0
-68 19 0
-63 -35 0
67 8 0
-24 23 0
51 -33 0
54 32 0
-68 -11 0
-65 -50 0
-43 -25 0
7 15 0
-39 -34 0
39 -61 0
-45 23 0
37 -28 0
47 -62 0
43 49 0
64 70 0
-23 62 0
40 24 0
-2 5 0
5 -3 0
-27 47 0
40 -52 0
-52 49 0
58 45 0
-42 25 0
-50 -48 0
40 -30 0
62 32 0
14 -51 0
-13 35 0
1 31 0
26 69 0
