c PROBLEM_070_070_45  vars=70  clausulas=70  k=2
p cnf 70 70
53 46 0
25 1 0
-38 45 0
49 -48 0
62 -15 0
32 64 0
-42 -25 0
-69 -55 0
-2 28 0
-57 24 0
59 63 0
9 -41 0
33 -12 0
-43 44 0
-37 58 0
-26 -14 0
10 7 0
-36 -17 0
-60 50 0
14 34 0
-6 -37 0
-64 -18 0
-63 9 0
-52 19 0
69 31 0
35 20 0
-30 61 0
-62 -61 0
9 -58 0
53 -62 0
65 -37 0
-54 47 0
-5 70 0
70 -24 0
43 69 0
-13 25 0
-17 -21 0
39 22 0
-48 -16 0
61 -55 0
53 27 0
-68 54 0
-51 -45 0
-63 -20 0
21 30 0
23 -26 0
-32 -46 0
-63 3 0
13 5 0
-62 4 0
37 50 0
21 33 0
-67 -41 0
-66 58 0
-56 58 0
27 -6 0
-35 -16 0
42 -51 0
68 -38 0
8 -13 0
30 -8 0
50 -28 0
-41 28 0
-69 -40 0
-29 -68 0
-11 60 0
-40 53 0
35 4 0
-59 -23 0
-64 18 0
