c PROBLEM_070_070_31  vars=70  clausulas=70  k=2
p cnf 70 70
-17 22 0
66 46 0
19 -59 0
-5 -62 0
-32 58 0
-33 -52 0
58 -47 0
63 70 0
41 65 0
-8 17 0
2 -7 0
-19 42 0
-41 -24 0
65 64 0
12 -14 0
-37 -35 0
-68 11 0
-62 -47 0
-40 -63 0
-25 -67 0
52 27 0
16 -4 0
53 32 0
-69 54 0
18 14 0
-35 4 0
-44 -53 0
55 13 0
20 -40 0
13 10 0
-57 -9 0
-7 -2 0
-68 -27 0
-22 1 0
60 26 0
-65 23 0
-16 -39 0
-11 27 0
23 -59 0
61 -42 0
-24 39 0
-35 32 0
-60 -70 0
31 -61 0
5 -57 0
6 39 0
-68 -21 0
47 -26 0
-48 6 0
36 9 0
34 -64 0
19 -18 0
21 18 0
-52 -64 0
16 50 0
-49 56 0
-2 43 0
26 -30 0
-10 -5 0
28 50 0
-62 -29 0
-21 -19 0
-45 -8 0
-51 67 0
-38 -60 0
15 -67 0
-45 49 0
-4 -37 0
36 33 0
-3 -70 0
