c PROBLEM_070_070_29  vars=70  clausulas=70  k=2
p cnf 70 70
3 -9 0
-21 -39 0
30 38 0
-39 61 0
12 27 0
-26 -59 0
-39 8 0
-47 -10 0
50 -19 0
-19 22 0
7 51 0
56 6 0
31 48 0
-3 -56 0
6 38 0
44 -5 0
27 -11 0
18 32 0
19 -65 0
-6 14 0
-4 15 0
-55 -13 0
-2 19 0
-30 61 0
64 15 0
4 68 0
62 7 0
-66 60 0
-40 -48 0
28 64 0
63 53 0
8 -65 0
31 -66 0
47 -29 0
-31 2 0
26 -15 0
42 2 0
12 -17 0
-37 23 0
-18 25 0
-67 47 0
-2 -23 0
-39 36 0
43 -69 0
24 -38 0
22 35 0
37 -20 0
41 -3 0
-59 -34 0
51 -62 0
58 -21 0
68 -57 0
-21 -52 0
23 30 0
-54 24 0
7 34 0
19 17 0
59 44 0
-9 16 0
-46 -50 0
-1 -29 0
51 10 0
16 -45 0
55 2 0
29 16 0
-38 13 0
48 -47 0
70 33 0
-69 -49 0
-54 42 0
