c PROBLEM_070_070_20  vars=70  clausulas=70  k=2
p cnf 70 70
49 26 0
41 -48 0
15 -28 0
44 -70 0
29 -17 0
-16 54 0
-39 -60 0
-49 10 0
-25 36 0
21 -5 0
36 57 0
63 -57 0
-48 -19 0
1 69 0
66 -7 0
-50 3 0
-31 -11 0
-56 30 0
-27 3 0
-70 65 0
35 -56 0
68 42 0
68 -40 0
-2 7 0
-67 37 0
-39 47 0
-36 20 0
-56 -27 0
36 -33 0
69 40 0
-4 30 0
32 -51 0
-34 -51 0
16 70 0
25 -6 0
-10 -59 0
-35 68 0
61 9 0
58 61 0
-38 36 0
24 35 0
38 8 0
-35 -27 0
47 -14 0
23 -18 0
31 -14 0
22 -17 0
61 58 0
-55 -10 0
-9 13 0
19 5 0
66 -34 0
45 48 0
23 -54 0
32 -11 0
-68 -53 0
64 -39 0
-10 43 0
-46 -24 0
-9 17 0
-15 52 0
-55 -49 0
-26 42 0
70 -22 0
62 -56 0
-50 28 0
12 -70 0
55 -61 0
-9 24 0
-39 -8 0
