c PROBLEM_070_070_27  vars=70  clausulas=70  k=2
p cnf 70 70
66 62 0
7 40 0
69 -67 0
2 -14 0
33 -62 0
34 -47 0
-50 29 0
65 70 0
36 -59 0
-29 41 0
12 -56 0
55 -39 0
44 59 0
39 -41 0
25 -57 0
-30 -41 0
39 36 0
-21 -69 0
48 -23 0
-63 47 0
13 45 0
-20 -1 0
25 -16 0
9 31 0
52 -24 0
46 -53 0
-22 -64 0
-49 -29 0
54 -32 0
-52 -1 0
66 26 0
-28 2 0
-2 28 0
-17 14 0
64 -7 0
-23 62 0
11 42 0
-38 48 0
-13 -1 0
-65 21 0
-52 2 0
6 35 0
59 30 0
12 -61 0
30 -16 0
42 51 0
-20 37 0
23 49 0
-5 -44 0
40 48 0
28 66 0
3 27 0
-22 4 0
-23 -35 0
60 -54 0
3 22 0
-56 -70 0
6 -40 0
-16 -68 0
-66 34 0
-38 -29 0
58 2 0
54 18 0
-8 53 0
10 -43 0
25 -39 0
-27 47 0
63 68 0
36 64 0
-15 19 0
