c PROBLEM_050_100_28  vars=50  clausulas=100  k=2
p cnf 50 100
-49 -3 0
45 -33 0
24 39 0
3 -11 0
-45 26 0
7 17 0
2 39 0
11 -44 0
-19 26 0
21 10 0
-3 18 0
-18 45 0
-35 48 0
33 11 0
5 31 0
33 -46 0
-19 -3 0
33 -50 0
-23 20 0
29 35 0
33 -12 0
-43 2 0
-17 -1 0
-20 17 0
-35 1 0
49 -7 0
-48 -32 0
49 -8 0
-17 -44 0
-34 -50 0
-48 19 0
-48 -21 0
-8 -48 0
15 -16 0
25 -40 0
-47 -37 0
-45 5 0
-39 25 0
-27 -32 0
34 16 0
27 14 0
-11 13 0
-7 11 0
-32 -3 0
21 -41 0
-4 -2 0
-46 28 0
-25 9 0
-25 -33 0
-31 -36 0
4 -9 0
-20 42 0
-23 24 0
6 41 0
22 -45 0
-14 5 0
43 50 0
7 19 0
-20 -15 0
-14 -16 0
49 7 0
-9 -50 0
-25 45 0
30 44 0
21 -15 0
-23 33 0
-18 -3 0
-26 10 0
29 -2 0
15 -6 0
-44 22 0
-28 10 0
-12 27 0
-45 -20 0
-31 11 0
-13 -2 0
-39 8 0
13 16 0
17 31 0
-31 33 0
44 -49 0
31 38 0
-40 -45 0
1 12 0
-42 -20 0
-40 -25 0
8 12 0
16 -5 0
-35 -46 0
-38 -20 0
-11 14 0
26 -35 0
40 42 0
-33 17 0
-22 -38 0
-38 -37 0
-12 -17 0
-4 25 0
5 -10 0
-23 -38 0
