c PROBLEM_050_100_26  vars=50  clausulas=100  k=2
p cnf 50 100
-20 36 0
15 -4 0
5 29 0
37 -23 0
-21 -25 0
24 -11 0
-35 36 0
-41 23 0
-38 -20 0
-6 46 0
-50 4 0
25 -36 0
2 37 0
36 38 0
4 -5 0
-25 44 0
-10 -35 0
29 20 0
49 36 0
-23 -19 0
5 -36 0
-43 39 0
36 -49 0
-3 -30 0
-9 23 0
-46 42 0
7 1 0
45 -37 0
-37 38 0
38 46 0
-35 -50 0
-30 31 0
-31 4 0
-44 -27 0
19 42 0
4 -31 0
-35 -37 0
-24 4 0
37 11 0
-44 32 0
-40 -9 0
-49 30 0
-20 -9 0
-43 21 0
45 -50 0
31 33 0
9 -42 0
19 -17 0
-38 30 0
39 47 0
-34 25 0
50 -23 0
10 4 0
16 7 0
42 38 0
13 18 0
44 37 0
-3 -23 0
-33 36 0
-33 -27 0
13 -5 0
15 12 0
-33 -2 0
-21 -42 0
37 41 0
-44 2 0
41 44 0
41 -6 0
-15 -41 0
27 19 0
38 21 0
-20 -3 0
39 -4 0
20 27 0
-41 12 0
31 29 0
12 46 0
-19 6 0
50 -17 0
29 -20 0
26 -49 0
16 -43 0
-14 7 0
-39 -1 0
42 31 0
6 -20 0
22 -8 0
19 -26 0
-10 -6 0
-30 -28 0
34 50 0
18 -11 0
-46 42 0
14 38 0
17 -30 0
-26 29 0
-46 9 0
9 3 0
14 -16 0
28 -48 0
