c PROBLEM_050_100_34  vars=50  clausulas=100  k=2
p cnf 50 100
20 -26 0
-32 -1 0
-43 22 0
-38 34 0
25 8 0
-27 12 0
-17 29 0
-13 47 0
-45 -34 0
37 31 0
-49 35 0
39 -37 0
46 -27 0
-43 -14 0
6 1 0
-7 21 0
-21 20 0
8 15 0
-6 11 0
-19 -2 0
-43 23 0
-4 -12 0
44 23 0
-44 -24 0
26 50 0
-7 12 0
-33 -39 0
-19 8 0
31 14 0
11 -44 0
-21 42 0
3 -14 0
13 43 0
19 -45 0
-28 42 0
21 -19 0
-36 9 0
-47 -45 0
-49 -21 0
-5 42 0
-50 23 0
39 -43 0
18 -20 0
41 16 0
-47 50 0
-27 -48 0
-26 -49 0
31 -28 0
-5 15 0
24 19 0
-21 1 0
27 6 0
-20 -31 0
40 29 0
-31 -44 0
10 -37 0
39 14 0
38 46 0
37 46 0
-47 -17 0
17 50 0
50 -38 0
11 -21 0
-5 -14 0
-1 -21 0
-19 37 0
-16 -48 0
41 -30 0
-41 42 0
-49 43 0
21 29 0
-6 21 0
21 11 0
17 9 0
1 -14 0
29 -2 0
37 -32 0
-5 19 0
4 -36 0
-31 -44 0
-20 -2 0
45 27 0
-35 44 0
19 9 0
-26 -38 0
39 38 0
-16 20 0
-6 -39 0
35 -9 0
20 26 0
43 -8 0
15 -8 0
6 -28 0
-40 35 0
-44 -37 0
23 26 0
9 28 0
-30 36 0
-29 14 0
22 -19 0
