c PROBLEM_050_100_19  vars=50  clausulas=100  k=2
p cnf 50 100
20 33 0
-37 -38 0
37 8 0
17 6 0
43 15 0
38 -27 0
5 7 0
36 -14 0
18 -2 0
-43 3 0
-46 -27 0
46 -4 0
-20 24 0
33 -35 0
-27 23 0
-36 -14 0
10 -28 0
-30 -25 0
-35 8 0
12 4 0
14 -2 0
-40 43 0
35 -21 0
-24 -38 0
-12 42 0
-37 -11 0
-39 15 0
-40 -23 0
38 40 0
-6 -48 0
-22 46 0
10 42 0
14 -18 0
8 -34 0
39 -30 0
6 19 0
17 28 0
-48 9 0
-6 -21 0
18 36 0
-23 -41 0
-1 39 0
10 29 0
16 -6 0
-3 -30 0
-4 -49 0
-19 1 0
33 44 0
41 16 0
11 20 0
-11 -23 0
11 38 0
6 -50 0
-7 -40 0
-38 23 0
-47 28 0
-9 27 0
-8 -35 0
47 35 0
24 -37 0
7 -12 0
-25 -29 0
-9 36 0
-45 -39 0
29 -24 0
-4 16 0
11 -13 0
44 14 0
39 -43 0
-44 33 0
-32 -37 0
11 16 0
-21 -35 0
-13 -39 0
11 32 0
-42 22 0
45 29 0
3 44 0
26 -47 0
-16 20 0
-28 35 0
45 26 0
-32 28 0
47 32 0
-1 36 0
43 -47 0
-22 -39 0
11 34 0
-4 46 0
-39 36 0
47 27 0
-7 -27 0
23 30 0
29 -24 0
50 -1 0
-10 -4 0
-18 5 0
46 -30 0
5 18 0
31 32 0
