c PROBLEM_050_100_06  vars=50  clausulas=100  k=2
p cnf 50 100
-49 -14 0
9 34 0
45 13 0
-33 -37 0
-9 21 0
4 -28 0
47 -39 0
-23 -43 0
-45 24 0
-14 -38 0
6 -45 0
-35 -23 0
-36 8 0
-31 -36 0
34 -30 0
-30 -42 0
-5 36 0
-29 33 0
-43 22 0
6 13 0
-37 -6 0
-50 -24 0
32 2 0
18 -49 0
-25 -8 0
-2 32 0
42 -31 0
-6 -23 0
-3 28 0
-24 -27 0
48 -27 0
-35 -50 0
-39 -21 0
-43 -16 0
6 -17 0
17 -3 0
-37 39 0
50 -1 0
23 18 0
-31 -35 0
37 21 0
7 -24 0
-41 -12 0
-5 44 0
-38 1 0
36 -1 0
-10 15 0
-39 35 0
-8 29 0
23 -13 0
-1 20 0
-35 -49 0
-42 -44 0
-11 -7 0
39 -27 0
32 -34 0
-18 45 0
19 -17 0
-13 -42 0
-31 -27 0
16 -41 0
42 25 0
-40 38 0
-2 -25 0
32 -5 0
6 46 0
-12 31 0
8 32 0
7 41 0
-20 -18 0
-44 24 0
-15 50 0
44 -40 0
-21 24 0
-49 -10 0
26 43 0
37 19 0
-14 2 0
18 40 0
-26 43 0
30 33 0
43 -17 0
-33 21 0
46 41 0
-46 -3 0
-48 41 0
23 36 0
-13 -24 0
-9 33 0
33 49 0
24 -9 0
-47 -3 0
29 16 0
19 32 0
2 33 0
-25 21 0
23 10 0
-34 -50 0
10 16 0
46 -23 0
