c PROBLEM_050_100_42  vars=50  clausulas=100  k=2
p cnf 50 100
16 -21 0
-30 -19 0
18 -6 0
-10 49 0
26 45 0
-36 -6 0
42 -19 0
42 -46 0
23 -43 0
-18 3 0
-21 49 0
-29 -21 0
44 24 0
-19 10 0
-10 -18 0
5 16 0
-12 9 0
-6 -44 0
-43 13 0
23 37 0
27 24 0
-28 34 0
34 41 0
27 2 0
-46 33 0
35 10 0
-14 -23 0
38 -33 0
39 -48 0
-11 -45 0
-32 37 0
-8 -28 0
-6 3 0
34 -1 0
27 -32 0
-43 28 0
-30 49 0
-29 -48 0
-17 -35 0
16 6 0
35 -42 0
-18 7 0
-25 47 0
-30 34 0
46 -38 0
-20 19 0
13 -11 0
39 1 0
-29 -38 0
29 -4 0
-27 15 0
-14 -30 0
-30 36 0
42 8 0
18 -44 0
-22 26 0
-4 -23 0
-37 41 0
46 -47 0
-3 25 0
-6 -23 0
33 4 0
-17 12 0
27 -47 0
24 -37 0
20 6 0
41 -45 0
16 6 0
-43 -30 0
1 30 0
10 3 0
18 49 0
-3 -39 0
40 20 0
-10 9 0
-32 -33 0
41 -10 0
17 32 0
-23 -32 0
-24 -39 0
42 36 0
47 48 0
19 50 0
-5 -22 0
-50 -42 0
-24 32 0
47 -40 0
-12 -35 0
-1 19 0
19 35 0
-48 18 0
-2 29 0
-31 -36 0
31 -24 0
-14 -32 0
-49 -13 0
-26 10 0
27 41 0
-38 39 0
-50 24 0
