c PROBLEM_050_100_16  vars=50  clausulas=100  k=2
p cnf 50 100
14 23 0
49 -40 0
19 40 0
-15 -24 0
13 18 0
35 36 0
-16 -24 0
-11 -42 0
31 26 0
-33 8 0
-13 28 0
41 47 0
-44 49 0
-13 17 0
37 -21 0
15 -13 0
-23 48 0
50 12 0
-41 -39 0
19 24 0
7 -39 0
44 21 0
-23 -12 0
-32 -30 0
-7 -33 0
-10 -8 0
28 -37 0
-21 -39 0
-9 4 0
-3 -22 0
-20 15 0
-12 -50 0
-37 2 0
49 22 0
-9 10 0
-31 -27 0
-1 2 0
-7 50 0
-15 4 0
-37 -44 0
-47 -27 0
50 -30 0
-11 -8 0
-35 18 0
-15 -34 0
1 -39 0
8 -4 0
-47 -50 0
37 21 0
-11 -39 0
-33 39 0
47 -27 0
-44 -18 0
-37 -13 0
37 47 0
22 14 0
3 -21 0
3 -40 0
14 -41 0
-15 -24 0
-15 -45 0
19 24 0
-24 -41 0
-1 -29 0
-10 -1 0
30 27 0
-32 20 0
14 -12 0
-7 30 0
37 6 0
-30 35 0
-2 -4 0
19 -24 0
-6 12 0
-41 17 0
29 -27 0
13 -9 0
37 11 0
-7 38 0
46 1 0
-43 -8 0
3 48 0
19 -25 0
19 -18 0
17 39 0
-15 45 0
9 -31 0
-15 5 0
11 27 0
-26 -48 0
48 45 0
-15 -27 0
8 9 0
-5 -16 0
10 -8 0
-14 38 0
19 -32 0
-11 -5 0
42 -15 0
-4 -40 0
