c PROBLEM_050_100_13  vars=50  clausulas=100  k=2
p cnf 50 100
43 18 0
-26 11 0
12 32 0
8 21 0
42 -28 0
-22 28 0
-11 -7 0
9 -31 0
-35 -1 0
2 -44 0
4 6 0
23 40 0
-42 -3 0
1 -20 0
44 39 0
17 -45 0
23 -16 0
47 -43 0
-38 14 0
50 -22 0
-19 -28 0
-6 -12 0
-46 30 0
-12 -17 0
-35 27 0
34 40 0
16 5 0
-31 -37 0
32 -33 0
25 14 0
17 35 0
-20 -25 0
22 -39 0
50 3 0
-39 3 0
49 3 0
44 -48 0
-15 37 0
-41 14 0
-38 14 0
-32 7 0
8 -26 0
-2 -16 0
31 -18 0
1 -19 0
-6 -31 0
-2 -17 0
3 -30 0
-7 31 0
-5 -3 0
-37 8 0
-43 37 0
7 50 0
37 -13 0
-17 23 0
10 -1 0
-9 -40 0
23 -44 0
24 -23 0
-15 -10 0
-46 -19 0
-16 27 0
27 19 0
-30 -24 0
33 -28 0
-49 47 0
3 -18 0
29 -14 0
3 17 0
-35 43 0
2 34 0
-11 2 0
-45 -41 0
36 5 0
24 21 0
29 -38 0
29 6 0
-1 12 0
-40 32 0
12 1 0
10 -18 0
46 36 0
49 39 0
-42 38 0
-25 -2 0
-1 -38 0
-45 -1 0
-3 32 0
-38 -26 0
13 10 0
-37 -30 0
-6 -9 0
46 -35 0
14 8 0
-9 1 0
46 -22 0
4 37 0
-3 -34 0
46 -42 0
-23 -3 0
