c PROBLEM_050_100_31  vars=50  clausulas=100  k=2
p cnf 50 100
3 30 0
-12 -8 0
41 -9 0
-3 -9 0
-25 11 0
-14 13 0
39 24 0
40 -9 0
27 -44 0
5 2 0
-6 -43 0
2 -11 0
17 22 0
40 -7 0
-27 -1 0
7 15 0
31 48 0
40 -5 0
50 -43 0
9 -35 0
-36 -20 0
-34 15 0
43 41 0
17 1 0
20 -12 0
-22 -43 0
-46 33 0
13 3 0
45 32 0
2 -36 0
-46 -15 0
20 -8 0
31 -22 0
11 21 0
-19 -33 0
-28 -12 0
-21 -6 0
-39 7 0
37 -11 0
16 -2 0
-30 19 0
46 31 0
30 -5 0
43 6 0
-23 10 0
19 -48 0
11 16 0
45 -35 0
39 7 0
49 -20 0
13 45 0
-10 -41 0
22 -24 0
45 48 0
-47 38 0
-48 -8 0
32 -29 0
-36 2 0
-26 14 0
-30 -42 0
-23 -8 0
19 38 0
-48 -39 0
-6 46 0
14 -30 0
-43 12 0
-44 38 0
-42 -23 0
-26 -18 0
-4 45 0
36 -32 0
13 -40 0
21 26 0
-47 15 0
47 18 0
-13 -43 0
-28 -25 0
41 50 0
24 -5 0
-34 42 0
48 21 0
-8 -37 0
49 -16 0
-31 -15 0
-25 16 0
38 -16 0
-49 48 0
29 -38 0
16 -13 0
28 10 0
-9 -35 0
-8 25 0
45 -27 0
2 23 0
-23 46 0
-48 24 0
22 -13 0
-36 10 0
23 44 0
-6 -21 0
