c PROBLEM_050_100_01  vars=50  clausulas=100  k=2
p cnf 50 100
44 29 0
9 -11 0
26 -21 0
45 -50 0
-7 26 0
28 -26 0
48 -1 0
34 -17 0
-8 19 0
-6 -19 0
18 12 0
49 2 0
-43 2 0
-40 18 0
-28 -19 0
-35 45 0
-47 40 0
-44 23 0
-23 49 0
-42 9 0
-25 -40 0
46 25 0
43 -7 0
41 50 0
3 25 0
6 38 0
-43 -22 0
-14 -11 0
-26 -37 0
-35 48 0
-17 -21 0
-48 33 0
13 9 0
46 -19 0
-4 -43 0
-35 -18 0
46 -31 0
23 -9 0
46 -47 0
21 8 0
46 -2 0
43 -19 0
15 45 0
50 -48 0
22 -37 0
49 -39 0
-22 -20 0
-32 13 0
-39 25 0
10 31 0
-25 46 0
-13 24 0
14 -6 0
-16 -14 0
16 -24 0
-43 36 0
-35 -26 0
30 8 0
4 25 0
37 47 0
-12 -9 0
45 8 0
18 -8 0
-13 -35 0
41 -39 0
-27 31 0
46 -33 0
15 27 0
20 4 0
-30 -33 0
-3 -45 0
31 -20 0
5 -35 0
24 42 0
-28 16 0
-26 -6 0
47 32 0
-20 -3 0
14 47 0
-21 -14 0
2 35 0
-35 -20 0
13 -10 0
12 -38 0
-13 5 0
27 47 0
34 41 0
6 -25 0
46 -50 0
43 11 0
28 44 0
-44 -10 0
44 10 0
39 -2 0
-26 -19 0
38 -16 0
50 44 0
-9 -39 0
-12 34 0
23 42 0
