c PROBLEM_050_100_25  vars=50  clausulas=100  k=2
p cnf 50 100
31 -27 0
26 17 0
-26 15 0
44 47 0
-3 35 0
3 -16 0
21 23 0
37 41 0
47 -10 0
27 6 0
5 14 0
38 28 0
-6 -27 0
-26 21 0
-42 -28 0
16 3 0
13 17 0
-48 -36 0
46 33 0
28 -36 0
-12 -46 0
23 -13 0
17 -20 0
17 28 0
25 -31 0
-17 28 0
-10 21 0
-50 -20 0
-35 15 0
40 43 0
32 -9 0
8 31 0
-22 -1 0
7 -49 0
15 9 0
-21 34 0
38 8 0
23 24 0
20 22 0
-39 -21 0
36 -6 0
-45 14 0
-2 -42 0
17 35 0
32 -25 0
-3 -20 0
31 -37 0
-17 4 0
-50 -30 0
-5 31 0
34 21 0
-50 33 0
-12 -25 0
19 49 0
46 -34 0
17 -18 0
-26 -32 0
-5 -14 0
-24 42 0
38 -31 0
3 39 0
-28 19 0
-12 -43 0
-2 -12 0
50 13 0
16 -41 0
-24 13 0
-45 18 0
-29 31 0
33 -7 0
-29 6 0
43 37 0
21 -28 0
-11 -22 0
35 -48 0
36 -35 0
-36 42 0
36 37 0
-35 -1 0
-28 4 0
50 34 0
43 -28 0
-48 -15 0
-48 -41 0
-50 40 0
50 -28 0
39 -26 0
29 41 0
17 -25 0
-7 37 0
1 26 0
-28 24 0
-36 -21 0
-37 48 0
-38 36 0
-41 -36 0
27 -15 0
23 -19 0
-32 12 0
-25 -33 0
