c PROBLEM_050_100_37  vars=50  clausulas=100  k=2
p cnf 50 100
-15 20 0
-2 -43 0
17 28 0
17 36 0
38 -17 0
29 -45 0
-6 49 0
15 39 0
25 44 0
-18 -32 0
7 49 0
7 -37 0
-47 10 0
35 -19 0
5 -31 0
-9 39 0
18 -10 0
-25 -4 0
15 -35 0
-45 25 0
20 33 0
37 2 0
-43 42 0
21 24 0
-4 20 0
1 14 0
-10 -42 0
-47 43 0
-27 -10 0
21 -34 0
6 -13 0
8 29 0
-26 -9 0
9 -8 0
-23 38 0
-46 -6 0
17 -50 0
11 -46 0
-5 8 0
28 27 0
11 33 0
-31 40 0
-48 12 0
15 24 0
32 -16 0
9 13 0
-25 3 0
14 23 0
-43 -38 0
-7 -5 0
-9 -33 0
-46 -16 0
-20 -24 0
36 31 0
30 -21 0
-12 7 0
-32 -20 0
11 12 0
-45 14 0
-38 -12 0
-1 33 0
11 50 0
-41 27 0
17 26 0
50 -23 0
-40 -31 0
-3 27 0
20 7 0
50 -13 0
-47 -46 0
40 45 0
-11 -10 0
-21 -13 0
20 28 0
-10 -3 0
36 -48 0
-18 28 0
-11 -13 0
15 30 0
-28 5 0
8 16 0
-45 47 0
-25 -39 0
8 29 0
-8 49 0
45 -24 0
-46 44 0
-40 -26 0
4 -8 0
50 -3 0
4 -22 0
26 28 0
3 -30 0
28 9 0
28 -32 0
-24 33 0
-25 -34 0
43 -7 0
-40 -5 0
34 -39 0
