c PROBLEM_050_100_27  vars=50  clausulas=100  k=2
p cnf 50 100
26 -42 0
8 -50 0
-45 2 0
32 23 0
-37 19 0
-50 -26 0
40 7 0
12 -1 0
20 -50 0
-34 27 0
29 17 0
-12 16 0
-46 45 0
-48 -1 0
3 33 0
-41 -30 0
9 25 0
8 -3 0
26 13 0
-8 46 0
38 -19 0
-33 -19 0
48 38 0
-11 9 0
18 14 0
-46 12 0
4 -10 0
-6 12 0
-32 15 0
-44 -39 0
-46 -47 0
7 31 0
-23 -46 0
34 48 0
17 50 0
41 -1 0
29 -50 0
-24 32 0
45 -27 0
-22 25 0
-29 49 0
19 -23 0
38 23 0
33 18 0
-39 -21 0
-39 16 0
-47 16 0
30 11 0
2 -29 0
-29 -15 0
-11 -26 0
48 4 0
48 34 0
28 -31 0
40 -11 0
7 36 0
9 -49 0
22 14 0
35 -5 0
-50 -25 0
4 27 0
49 -43 0
15 6 0
43 -31 0
17 -44 0
20 21 0
21 -37 0
-26 -11 0
-23 -48 0
-48 35 0
-37 -27 0
25 17 0
-14 -27 0
-34 13 0
34 42 0
-42 -28 0
-19 18 0
-20 14 0
50 45 0
-14 -5 0
12 -16 0
-20 -1 0
9 -24 0
-41 -32 0
4 21 0
25 -4 0
-35 7 0
20 -10 0
15 -10 0
-20 22 0
-48 10 0
-1 -19 0
-7 -47 0
-22 27 0
29 -49 0
-5 -46 0
-32 -50 0
-7 -1 0
31 1 0
-26 18 0
