c PROBLEM_050_100_29  vars=50  clausulas=100  k=2
p cnf 50 100
28 -29 0
-46 -17 0
27 34 0
44 50 0
46 -14 0
-3 6 0
-39 -25 0
30 -40 0
-21 27 0
-24 4 0
-37 43 0
41 22 0
44 37 0
12 35 0
-49 -3 0
-24 43 0
19 -42 0
11 38 0
27 20 0
-35 -46 0
-13 -16 0
-8 -50 0
18 21 0
-17 -46 0
-36 -33 0
-48 9 0
-20 3 0
3 -38 0
-37 -44 0
-32 50 0
20 25 0
48 36 0
-11 40 0
21 25 0
-38 13 0
-44 -17 0
-4 32 0
-36 -43 0
-44 -15 0
-31 23 0
-23 -15 0
-45 13 0
-8 37 0
-20 -38 0
-32 46 0
19 1 0
-45 -26 0
-13 -41 0
-24 -11 0
10 15 0
-1 -49 0
-11 19 0
-16 -34 0
-39 47 0
-10 -36 0
-32 -41 0
-50 -47 0
-11 24 0
24 -29 0
15 -6 0
21 37 0
-50 -28 0
-28 -37 0
3 46 0
23 -26 0
46 16 0
9 -34 0
40 -31 0
-24 4 0
-24 32 0
-33 -46 0
48 14 0
31 32 0
32 29 0
-48 36 0
-20 3 0
7 22 0
-12 -2 0
19 40 0
-6 40 0
-19 -46 0
13 -6 0
48 -33 0
50 -42 0
-49 -1 0
-30 20 0
42 25 0
-11 -28 0
-16 47 0
2 -3 0
10 -19 0
-9 26 0
-41 -19 0
4 -17 0
-28 -11 0
-45 47 0
-26 18 0
-29 44 0
-5 -8 0
-13 -25 0
