c PROBLEM_050_100_48  vars=50  clausulas=100  k=2
p cnf 50 100
-39 44 0
-2 45 0
-17 9 0
-42 -21 0
28 48 0
47 -13 0
1 -25 0
-4 43 0
-48 50 0
-44 10 0
18 -33 0
-28 -27 0
18 -38 0
-35 7 0
41 -42 0
-14 -24 0
-13 11 0
-23 9 0
-11 49 0
-36 -13 0
37 -13 0
11 2 0
33 1 0
-30 28 0
-36 49 0
-6 20 0
-23 -6 0
-8 39 0
-12 -22 0
1 -3 0
28 -6 0
-1 34 0
28 -45 0
-17 18 0
24 31 0
-36 -14 0
-29 47 0
50 18 0
11 21 0
46 1 0
-32 22 0
29 -23 0
-49 -43 0
32 -20 0
35 -21 0
-40 35 0
-19 -2 0
-37 -41 0
47 -46 0
34 9 0
6 4 0
-27 37 0
18 -38 0
-12 -40 0
36 7 0
-41 -32 0
38 3 0
-33 41 0
48 28 0
13 35 0
20 -33 0
47 -6 0
-1 4 0
-14 -36 0
-27 -10 0
-23 1 0
-22 3 0
-1 -40 0
-44 32 0
2 -12 0
-19 -46 0
-11 47 0
26 30 0
-47 -25 0
14 36 0
-37 32 0
48 -25 0
50 14 0
43 -28 0
8 49 0
34 44 0
-42 -18 0
47 -38 0
-33 21 0
-18 47 0
9 -36 0
-21 -14 0
15 -19 0
2 38 0
-17 -12 0
4 -46 0
5 35 0
6 14 0
-6 -16 0
37 -21 0
-28 8 0
-7 50 0
30 -5 0
-13 7 0
-46 -5 0
