c PROBLEM_050_100_41  vars=50  clausulas=100  k=2
p cnf 50 100
-42 -37 0
36 -47 0
8 -39 0
-44 21 0
-36 28 0
11 -9 0
17 20 0
3 42 0
-15 45 0
-25 21 0
-15 -5 0
47 -13 0
-13 -7 0
7 27 0
-28 22 0
3 -11 0
-12 32 0
-31 -39 0
-43 -47 0
40 31 0
-22 -25 0
-3 43 0
-6 21 0
3 42 0
-20 3 0
47 -16 0
-14 -32 0
-40 -3 0
6 -28 0
32 39 0
23 -34 0
35 -33 0
10 -27 0
-34 -45 0
19 -10 0
-27 -31 0
-48 -39 0
1 -25 0
29 22 0
-48 -45 0
18 7 0
-12 42 0
-33 -45 0
-43 -3 0
29 -18 0
-38 -49 0
-33 23 0
11 -46 0
-29 24 0
30 -15 0
-35 33 0
-31 -6 0
17 40 0
1 -9 0
18 32 0
-41 -37 0
30 -25 0
32 -20 0
9 -15 0
-29 -20 0
-47 -41 0
7 -44 0
-10 -28 0
1 -27 0
-5 15 0
-32 -2 0
33 47 0
19 -9 0
-20 -21 0
24 32 0
-2 -9 0
32 -16 0
42 26 0
-2 16 0
-18 -50 0
2 -29 0
-7 -9 0
-50 -43 0
2 48 0
-7 -42 0
19 -1 0
42 43 0
-50 36 0
46 34 0
18 -50 0
33 17 0
28 20 0
47 -5 0
13 29 0
24 16 0
-6 -28 0
22 42 0
46 10 0
24 -30 0
40 -8 0
-23 -34 0
4 -49 0
18 32 0
12 28 0
45 33 0
