c PROBLEM_050_100_05  vars=50  clausulas=100  k=2
p cnf 50 100
-13 28 0
21 27 0
-33 -14 0
-19 35 0
-2 23 0
20 40 0
-49 -3 0
-45 -6 0
14 2 0
24 -18 0
16 15 0
-7 28 0
18 4 0
26 31 0
10 17 0
-17 29 0
-9 17 0
-6 38 0
-16 -44 0
-46 30 0
27 -18 0
40 -17 0
-32 13 0
-37 -35 0
38 41 0
-27 25 0
-29 28 0
35 -22 0
17 -3 0
-40 39 0
26 -50 0
-1 -34 0
-50 17 0
-7 -18 0
-48 5 0
50 -40 0
28 -11 0
-22 -33 0
-49 -1 0
45 26 0
-25 -42 0
26 -34 0
-23 20 0
-37 17 0
-16 -4 0
-18 -44 0
50 7 0
3 42 0
-17 39 0
34 -12 0
-12 43 0
-19 21 0
-5 -17 0
41 43 0
-13 -31 0
27 -48 0
-29 34 0
-43 44 0
-26 -42 0
9 8 0
-21 36 0
-14 8 0
-2 -4 0
44 -46 0
12 25 0
-6 8 0
10 -25 0
12 -45 0
-48 -36 0
-25 23 0
17 13 0
41 -24 0
-14 -24 0
-46 -39 0
23 19 0
-50 -33 0
-23 22 0
-25 -33 0
35 7 0
23 5 0
-9 29 0
11 13 0
-6 -34 0
-19 -32 0
42 38 0
41 -1 0
-50 -41 0
45 -31 0
14 -28 0
-13 -10 0
14 41 0
-36 47 0
1 -3 0
-6 38 0
10 -47 0
-44 -16 0
43 -47 0
22 36 0
43 -28 0
-1 18 0
