c PROBLEM_050_100_11  vars=50  clausulas=100  k=2
p cnf 50 100
49 -21 0
-34 -4 0
7 -31 0
6 35 0
-26 -11 0
-19 3 0
-40 -19 0
-40 -38 0
9 -43 0
-20 -13 0
19 35 0
-9 7 0
-13 -31 0
16 33 0
-39 -44 0
23 -10 0
45 24 0
19 28 0
-19 29 0
-31 -25 0
-21 25 0
39 36 0
30 -40 0
41 -30 0
22 -12 0
-48 -24 0
25 9 0
31 -8 0
23 29 0
50 27 0
-10 -28 0
33 -15 0
-46 2 0
2 48 0
19 -36 0
2 -14 0
-18 -48 0
37 -29 0
32 34 0
22 -48 0
7 -8 0
11 -47 0
50 -1 0
-20 -36 0
46 -10 0
2 -31 0
17 11 0
14 8 0
43 -50 0
-2 -36 0
10 -3 0
24 -8 0
13 4 0
48 -3 0
46 -36 0
5 27 0
9 -41 0
-50 36 0
48 -19 0
-44 11 0
-47 -5 0
-26 -1 0
-42 -14 0
-29 38 0
9 -20 0
50 -40 0
-38 37 0
-32 10 0
7 24 0
14 -12 0
42 -46 0
15 -8 0
38 35 0
49 -32 0
-41 45 0
40 -31 0
21 3 0
14 -43 0
13 9 0
48 34 0
-31 -13 0
-33 -23 0
-31 -33 0
4 -48 0
17 47 0
12 -10 0
-26 40 0
-4 -36 0
-18 27 0
-30 -31 0
18 6 0
28 5 0
30 31 0
-37 41 0
-42 20 0
-40 -14 0
-4 44 0
-13 40 0
-28 36 0
19 15 0
