c PROBLEM_050_100_35  vars=50  clausulas=100  k=2
p cnf 50 100
47 21 0
-10 -16 0
-39 -33 0
32 -45 0
24 16 0
37 -20 0
26 -40 0
46 31 0
46 -17 0
-14 40 0
49 32 0
20 35 0
22 -28 0
12 -8 0
-15 18 0
-38 2 0
22 -34 0
20 -50 0
-31 11 0
-39 38 0
8 3 0
10 1 0
-46 35 0
-33 -2 0
19 24 0
-19 -11 0
38 45 0
-7 27 0
-23 13 0
3 -42 0
33 18 0
19 34 0
43 -47 0
21 -9 0
47 -41 0
18 -36 0
22 5 0
41 6 0
-39 -14 0
28 19 0
37 -7 0
-44 -2 0
23 -40 0
27 -21 0
-10 33 0
40 -38 0
-45 -31 0
-18 -23 0
-24 36 0
-1 4 0
39 -6 0
-4 -29 0
25 22 0
12 -7 0
-44 -35 0
-29 28 0
48 7 0
32 -30 0
-14 -50 0
-33 -7 0
30 20 0
-27 -26 0
40 31 0
34 38 0
-4 -25 0
44 11 0
-32 -17 0
-42 41 0
7 -1 0
-20 2 0
-17 -9 0
45 46 0
42 -48 0
-9 -33 0
24 -21 0
8 20 0
-39 -41 0
-20 9 0
-2 45 0
-35 -20 0
-41 -11 0
43 38 0
-28 -38 0
-13 15 0
7 21 0
34 17 0
-6 49 0
-5 -12 0
18 -19 0
-8 24 0
-23 22 0
14 22 0
-44 42 0
26 4 0
-27 -50 0
-25 -45 0
-14 45 0
3 -6 0
16 -48 0
-26 -17 0
