c PROBLEM_050_100_44  vars=50  clausulas=100  k=2
p cnf 50 100
-21 -1 0
4 -34 0
-22 32 0
18 -7 0
-24 -31 0
-43 -16 0
-39 -16 0
-48 49 0
-38 46 0
-24 43 0
-41 9 0
-4 -13 0
29 -39 0
-31 -24 0
-7 47 0
33 -13 0
-10 6 0
-40 35 0
-30 38 0
-11 45 0
-46 -43 0
-4 -27 0
24 -12 0
-9 40 0
-39 43 0
45 3 0
-22 17 0
-1 19 0
38 -48 0
-12 42 0
-2 -6 0
48 19 0
34 -1 0
-39 48 0
3 43 0
22 -20 0
-17 47 0
-27 -28 0
5 6 0
6 49 0
-36 -14 0
28 34 0
-33 -35 0
22 47 0
19 -14 0
-36 23 0
46 -32 0
-10 -15 0
-9 36 0
-8 -12 0
-43 -11 0
48 -25 0
31 -15 0
16 -27 0
-18 12 0
14 35 0
-1 49 0
-15 -18 0
13 -33 0
-44 -6 0
-25 -19 0
-16 -13 0
-41 -49 0
34 -44 0
-13 17 0
-24 34 0
44 -16 0
-43 33 0
39 -34 0
19 -11 0
-2 33 0
-13 48 0
38 24 0
-50 9 0
-40 18 0
33 48 0
12 19 0
10 3 0
-6 -31 0
-33 -2 0
-24 11 0
-31 -8 0
30 -23 0
-1 -27 0
23 4 0
32 -20 0
28 -37 0
37 28 0
-7 25 0
41 12 0
24 5 0
-26 2 0
-24 37 0
33 -48 0
-30 14 0
-33 49 0
-21 -17 0
30 -40 0
18 -5 0
7 -26 0
