c PROBLEM_050_100_14  vars=50  clausulas=100  k=2
p cnf 50 100
-16 42 0
26 35 0
22 21 0
-41 2 0
5 44 0
35 11 0
-49 -25 0
-7 30 0
49 -14 0
-50 -19 0
46 15 0
49 46 0
-4 28 0
48 -18 0
44 38 0
47 21 0
-44 -18 0
-18 -11 0
22 -31 0
19 10 0
-37 26 0
-24 -44 0
-17 8 0
-30 1 0
28 45 0
-3 -38 0
-28 20 0
-19 -29 0
8 -38 0
50 -17 0
-22 -14 0
2 -40 0
27 -28 0
-5 40 0
-37 -1 0
-29 -14 0
-26 23 0
-50 9 0
44 17 0
37 -19 0
-10 -24 0
34 7 0
7 -26 0
-48 -18 0
36 12 0
15 -13 0
43 -6 0
-6 -20 0
-39 -3 0
1 -36 0
26 10 0
10 -8 0
-32 16 0
-36 -40 0
44 3 0
-15 46 0
50 36 0
-20 41 0
26 -6 0
17 -49 0
48 -50 0
-50 -22 0
13 -22 0
-30 25 0
33 -35 0
32 33 0
17 24 0
5 -42 0
-42 -30 0
15 21 0
21 2 0
37 -9 0
-5 44 0
-45 36 0
5 47 0
-6 -33 0
-3 -29 0
-1 10 0
-27 -32 0
17 35 0
-12 -4 0
-24 -26 0
-47 -15 0
33 -43 0
26 -36 0
24 -14 0
42 -26 0
-33 45 0
26 42 0
-21 -11 0
-28 -50 0
36 48 0
-33 31 0
-31 -24 0
-25 -34 0
-19 45 0
-45 -48 0
1 -10 0
20 -7 0
-15 -4 0
