c PROBLEM_050_100_32  vars=50  clausulas=100  k=2
p cnf 50 100
22 -43 0
-2 39 0
-43 8 0
-24 41 0
41 50 0
-17 33 0
-22 -13 0
-30 8 0
-44 -15 0
42 -24 0
-31 -2 0
-10 -17 0
50 19 0
-20 23 0
-32 -36 0
33 -37 0
-27 15 0
-26 -18 0
-23 -26 0
43 10 0
-20 -47 0
37 -48 0
-27 2 0
-11 -42 0
16 5 0
-11 50 0
-23 -32 0
-15 -32 0
-46 8 0
25 35 0
-4 32 0
28 -44 0
3 -26 0
37 36 0
20 -38 0
46 7 0
11 14 0
4 2 0
32 37 0
19 -21 0
-41 -24 0
-30 -45 0
46 20 0
-6 10 0
-8 40 0
-20 -40 0
8 -22 0
-26 40 0
30 14 0
-47 -44 0
-9 12 0
-36 1 0
19 -16 0
-17 37 0
-40 -4 0
-31 30 0
-13 34 0
-45 28 0
29 18 0
-14 -28 0
24 36 0
41 28 0
30 44 0
45 -18 0
-47 12 0
-3 27 0
-18 39 0
-29 49 0
-49 48 0
10 -25 0
-11 -17 0
-33 -28 0
-8 40 0
-46 34 0
38 19 0
-28 -48 0
-15 19 0
-16 47 0
-31 -7 0
-49 33 0
-7 -39 0
50 4 0
-13 -36 0
27 21 0
8 -2 0
-1 -5 0
-16 15 0
47 -27 0
50 -6 0
-33 -42 0
11 -34 0
11 -25 0
-20 18 0
-34 17 0
43 -23 0
-1 49 0
-43 35 0
10 -18 0
-21 31 0
-24 -35 0
