c PROBLEM_015_060_46  vars=15  clausulas=60  k=2
p cnf 15 60
15 -14 0
5 -8 0
-2 13 0
-3 -11 0
13 -3 0
-6 15 0
9 6 0
1 -9 0
-1 -4 0
-11 10 0
-13 15 0
13 5 0
-4 11 0
-3 13 0
12 -2 0
-9 13 0
-8 -14 0
3 -13 0
-3 -4 0
-13 6 0
13 -8 0
-13 5 0
-10 -8 0
-4 9 0
2 9 0
9 5 0
-7 13 0
15 2 0
4 -7 0
2 -12 0
-11 -13 0
-10 -11 0
4 -15 0
15 14 0
-8 -2 0
-15 6 0
13 10 0
-3 5 0
-6 13 0
4 -3 0
15 -10 0
2 9 0
-11 15 0
8 11 0
-11 -1 0
-13 11 0
12 5 0
5 7 0
-4 -3 0
-10 12 0
-9 13 0
7 1 0
13 -8 0
3 15 0
-2 13 0
-11 5 0
12 -9 0
12 -15 0
2 10 0
-5 -11 0
