c PROBLEM_015_060_24  vars=15  clausulas=60  k=2
p cnf 15 60
8 -1 0
6 7 0
-8 -1 0
13 14 0
-12 11 0
13 1 0
-4 -10 0
7 -5 0
-8 -13 0
-8 14 0
6 -12 0
3 13 0
-6 8 0
-8 9 0
-6 -2 0
10 -11 0
12 -9 0
-14 -15 0
11 4 0
-13 12 0
13 -15 0
6 10 0
3 1 0
-4 -8 0
-7 -12 0
8 4 0
11 -15 0
-9 10 0
10 11 0
11 -6 0
-1 6 0
-10 -9 0
10 13 0
-8 -3 0
-4 -11 0
15 -9 0
-1 -15 0
-12 -13 0
-9 -15 0
-8 6 0
8 4 0
-9 11 0
-3 2 0
-3 8 0
4 7 0
13 5 0
-8 2 0
5 -9 0
-1 -6 0
-7 -14 0
10 -13 0
-11 13 0
-7 -4 0
14 -12 0
-10 8 0
-1 -4 0
15 3 0
-14 -15 0
-8 10 0
11 3 0
