c PROBLEM_015_060_09  vars=15  clausulas=60  k=2
p cnf 15 60
-6 -10 0
-10 9 0
9 14 0
2 -6 0
-13 9 0
13 -12 0
-12 4 0
-13 9 0
-5 -8 0
-4 -15 0
11 13 0
-1 -6 0
15 -2 0
-2 -14 0
-7 -3 0
8 14 0
-14 7 0
-7 -11 0
14 -5 0
-11 12 0
-1 -9 0
1 10 0
10 -7 0
-4 -15 0
-6 5 0
-15 5 0
15 -5 0
-5 15 0
-6 -14 0
13 -11 0
15 -2 0
10 11 0
8 14 0
3 -7 0
-14 -5 0
-6 13 0
-5 -3 0
-4 13 0
8 -7 0
13 4 0
-10 1 0
1 -5 0
-5 12 0
-11 9 0
12 -13 0
-8 -2 0
3 9 0
15 -13 0
9 -1 0
12 8 0
3 12 0
3 -2 0
9 -1 0
-13 -11 0
10 -11 0
7 9 0
14 -13 0
15 -2 0
14 13 0
1 7 0
