c PROBLEM_015_060_43  vars=15  clausulas=60  k=2
p cnf 15 60
4 -12 0
-7 -3 0
-10 -14 0
-9 -4 0
-4 -9 0
-11 -2 0
-1 -7 0
-6 12 0
-14 13 0
8 -13 0
-2 -12 0
-14 15 0
3 -6 0
-8 3 0
9 -11 0
8 15 0
8 -5 0
6 3 0
14 -11 0
10 -7 0
-11 -10 0
5 2 0
-10 -12 0
11 -5 0
6 -5 0
15 -10 0
-4 -13 0
4 15 0
5 -1 0
-15 -3 0
-3 1 0
-10 -13 0
15 3 0
-15 6 0
-1 -7 0
1 -14 0
-9 -4 0
6 3 0
5 15 0
-1 -9 0
7 11 0
6 1 0
-3 -15 0
5 9 0
13 11 0
3 -4 0
2 -5 0
13 -4 0
15 -11 0
-6 -14 0
-5 14 0
12 -7 0
-13 -2 0
-6 -7 0
-6 -2 0
-10 -3 0
-11 13 0
3 -6 0
1 10 0
7 -9 0
