c PROBLEM_015_060_15  vars=15  clausulas=60  k=2
p cnf 15 60
10 -12 0
-5 -10 0
15 11 0
11 13 0
8 -10 0
-4 -12 0
9 7 0
14 6 0
-6 8 0
1 13 0
-12 -15 0
10 -8 0
13 5 0
-4 -12 0
-7 -3 0
8 3 0
10 -3 0
-3 7 0
7 -2 0
-9 12 0
-8 14 0
12 -5 0
-14 -11 0
-14 -4 0
15 12 0
-14 -10 0
12 4 0
9 11 0
8 1 0
-15 12 0
9 -5 0
12 -4 0
-7 4 0
-11 -12 0
-10 4 0
12 11 0
-1 10 0
-14 -13 0
-14 -10 0
-3 -1 0
-6 4 0
12 8 0
9 -12 0
10 3 0
-3 -2 0
7 -9 0
7 -5 0
4 10 0
2 -8 0
14 -9 0
-14 -6 0
8 10 0
-3 -8 0
-2 -9 0
12 -15 0
-14 11 0
14 2 0
13 15 0
8 -5 0
-1 9 0
