c PROBLEM_015_060_02  vars=15  clausulas=60  k=2
p cnf 15 60
-11 7 0
-15 5 0
7 -15 0
-7 3 0
-7 -6 0
-14 13 0
4 -3 0
15 10 0
-7 5 0
-11 12 0
10 14 0
-11 -5 0
12 -4 0
4 15 0
-3 5 0
-9 -7 0
5 10 0
-1 2 0
7 -10 0
-13 -15 0
-11 3 0
-2 -14 0
3 8 0
12 15 0
-3 -11 0
-14 3 0
-8 7 0
-5 -3 0
15 2 0
-9 -3 0
5 6 0
13 -7 0
-10 -14 0
8 6 0
3 -6 0
10 -7 0
-10 2 0
9 -14 0
9 7 0
13 8 0
14 6 0
1 14 0
7 -4 0
8 -5 0
-11 7 0
12 4 0
-4 14 0
-5 8 0
6 9 0
2 -7 0
-5 -3 0
-11 -6 0
-13 1 0
-9 10 0
-8 -9 0
-13 -3 0
5 9 0
-1 -5 0
-10 -3 0
7 -3 0
