c PROBLEM_015_060_44  vars=15  clausulas=60  k=2
p cnf 15 60
14 11 0
-4 14 0
15 -1 0
12 2 0
2 -13 0
-6 -1 0
5 7 0
10 2 0
-2 3 0
-9 -11 0
13 14 0
-12 -11 0
12 -4 0
-4 -9 0
15 8 0
-11 6 0
10 -9 0
-6 7 0
9 -13 0
14 -13 0
4 -2 0
12 3 0
-4 12 0
8 1 0
-4 3 0
10 9 0
-8 -5 0
-1 4 0
9 -1 0
1 7 0
-2 -1 0
-5 -12 0
-1 9 0
-5 15 0
15 -12 0
-2 -11 0
-12 -1 0
-7 11 0
-12 -14 0
3 7 0
13 -8 0
-14 -6 0
2 9 0
12 13 0
7 3 0
-5 6 0
12 9 0
6 15 0
-14 1 0
5 14 0
-1 15 0
4 -3 0
10 4 0
15 10 0
15 -2 0
-8 -2 0
13 -10 0
-9 -10 0
-1 3 0
12 -11 0
