c PROBLEM_015_060_38  vars=15  clausulas=60  k=2
p cnf 15 60
-8 -1 0
1 4 0
9 3 0
12 -8 0
-1 -15 0
6 -1 0
-3 8 0
-7 12 0
5 -10 0
-3 10 0
-10 4 0
13 9 0
-13 -15 0
-11 -2 0
12 -2 0
12 10 0
5 -3 0
-14 2 0
9 -8 0
-4 -6 0
-15 -6 0
2 -4 0
-12 -3 0
3 7 0
4 15 0
12 -11 0
13 -9 0
4 5 0
12 -13 0
8 5 0
-12 9 0
1 -2 0
-6 -15 0
-2 5 0
2 12 0
-9 7 0
8 -10 0
-9 4 0
-1 11 0
14 -1 0
9 15 0
10 -13 0
15 -10 0
13 6 0
11 1 0
3 4 0
7 13 0
10 -13 0
3 14 0
3 7 0
6 -8 0
-15 -8 0
1 9 0
-13 -15 0
11 -15 0
1 -13 0
4 -11 0
5 8 0
-2 10 0
14 -12 0
