c PROBLEM_015_060_32  vars=15  clausulas=60  k=2
p cnf 15 60
-5 -14 0
-13 -14 0
-5 2 0
-2 -8 0
-4 14 0
13 14 0
-5 15 0
1 15 0
-4 1 0
-8 5 0
-3 9 0
5 -7 0
-10 -7 0
-1 9 0
9 2 0
-6 -11 0
-11 14 0
4 1 0
-9 2 0
-5 -1 0
-3 5 0
1 15 0
-9 13 0
6 -14 0
-15 13 0
-15 12 0
-6 -11 0
-10 -13 0
-5 -8 0
-3 7 0
14 -13 0
-6 8 0
-8 -11 0
8 6 0
15 -9 0
11 15 0
10 -12 0
-6 -7 0
-1 -15 0
9 5 0
-12 1 0
15 12 0
4 5 0
6 15 0
-12 -11 0
-3 11 0
2 -12 0
8 6 0
-14 10 0
-3 -13 0
-14 -8 0
12 -14 0
-10 7 0
14 15 0
-12 -13 0
11 6 0
-11 -12 0
2 -3 0
7 2 0
-2 8 0
