c PROBLEM_015_060_31  vars=15  clausulas=60  k=2
p cnf 15 60
2 14 0
-10 5 0
-12 -3 0
3 -4 0
13 -15 0
-5 -15 0
15 2 0
-2 -12 0
-12 -11 0
-13 10 0
-13 -5 0
10 -3 0
10 -2 0
2 -1 0
4 -10 0
-15 14 0
-13 10 0
7 -5 0
3 7 0
3 10 0
15 12 0
1 7 0
15 -7 0
-6 2 0
-3 -14 0
3 -14 0
13 4 0
12 4 0
-7 -3 0
14 9 0
-1 -7 0
5 14 0
-8 -6 0
-2 -15 0
1 -4 0
3 14 0
-13 -10 0
3 -8 0
9 -11 0
-4 14 0
-1 -9 0
6 7 0
14 12 0
-10 11 0
-8 -9 0
-13 7 0
15 7 0
6 -13 0
-6 -9 0
-3 -12 0
11 -10 0
2 8 0
-8 2 0
14 12 0
10 -14 0
-12 8 0
-4 -11 0
5 -7 0
6 5 0
-10 -12 0
