c PROBLEM_015_060_10  vars=15  clausulas=60  k=2
p cnf 15 60
13 15 0
-4 -8 0
13 -5 0
1 -4 0
-12 -15 0
14 -1 0
-7 -9 0
-10 9 0
-9 -12 0
2 -4 0
9 -7 0
7 -8 0
-14 7 0
9 4 0
-14 9 0
2 -10 0
2 -13 0
-15 -5 0
10 2 0
15 -4 0
12 2 0
2 15 0
8 11 0
-10 11 0
7 -6 0
-8 -10 0
11 9 0
13 -10 0
-15 14 0
-7 -15 0
-7 -10 0
14 -1 0
5 11 0
-4 -7 0
10 -12 0
12 -3 0
-12 -3 0
4 -10 0
-13 -12 0
-14 -7 0
-8 6 0
-6 -12 0
12 -8 0
4 5 0
7 -1 0
-4 -8 0
-4 15 0
-1 -14 0
-8 -10 0
11 1 0
-4 -8 0
10 -8 0
14 -2 0
-5 6 0
-5 15 0
-7 -1 0
-7 6 0
-3 4 0
-13 -14 0
15 2 0
