c PROBLEM_015_060_36  vars=15  clausulas=60  k=2
p cnf 15 60
3 9 0
-9 -6 0
1 -13 0
4 7 0
-11 8 0
1 9 0
1 13 0
-1 -5 0
-2 10 0
13 3 0
-2 -7 0
10 -15 0
8 -2 0
-15 9 0
11 15 0
9 -15 0
14 7 0
-15 13 0
-14 1 0
-15 -5 0
-15 13 0
-4 -5 0
-1 -10 0
6 15 0
7 14 0
-15 7 0
4 -14 0
8 -7 0
-3 -10 0
-1 -4 0
-6 1 0
10 -13 0
6 4 0
-6 -5 0
5 -13 0
14 -2 0
7 -12 0
-10 9 0
7 -11 0
-6 -8 0
1 -5 0
-14 -4 0
-6 -13 0
-3 2 0
14 12 0
13 12 0
6 -8 0
-12 6 0
-5 -4 0
1 -8 0
1 13 0
11 4 0
15 3 0
-11 6 0
-2 -13 0
-14 -9 0
-14 4 0
-7 -2 0
-1 13 0
-10 -1 0
