c PROBLEM_015_060_11  vars=15  clausulas=60  k=2
p cnf 15 60
3 -12 0
12 8 0
-15 14 0
9 -12 0
-6 -10 0
-12 10 0
-14 -15 0
-11 -6 0
12 -8 0
-9 -5 0
-11 -12 0
15 14 0
13 -12 0
-4 3 0
8 -14 0
3 -13 0
1 -2 0
-12 -11 0
3 -6 0
-15 -9 0
5 7 0
-2 11 0
-8 -11 0
10 -12 0
1 -5 0
-14 -5 0
-1 -15 0
-6 4 0
-4 -6 0
-7 9 0
3 -6 0
7 10 0
2 -15 0
5 15 0
15 -12 0
-12 -13 0
-7 6 0
3 -12 0
12 -7 0
3 -5 0
-7 1 0
-11 -14 0
2 -5 0
8 -12 0
4 6 0
-15 10 0
2 -3 0
7 2 0
13 -2 0
-4 6 0
-6 -4 0
8 -6 0
-9 -4 0
5 -9 0
-9 2 0
8 10 0
-2 8 0
-1 -6 0
4 13 0
-15 7 0
