c PROBLEM_015_060_06  vars=15  clausulas=60  k=2
p cnf 15 60
7 8 0
-15 -5 0
12 10 0
5 -6 0
-14 -13 0
-14 -15 0
-12 14 0
14 4 0
-5 10 0
-6 -3 0
10 8 0
12 -7 0
9 -7 0
-9 -14 0
-15 11 0
6 -2 0
13 1 0
-7 12 0
-10 5 0
-8 15 0
-1 -12 0
11 -6 0
-2 8 0
12 -4 0
-3 1 0
7 -8 0
3 -4 0
-10 -15 0
-11 5 0
8 -11 0
9 -2 0
1 -6 0
-14 2 0
-12 11 0
-8 -7 0
-8 3 0
11 2 0
-11 -6 0
-12 13 0
7 6 0
-14 -2 0
-4 13 0
-6 -9 0
13 -7 0
-8 -15 0
11 9 0
-9 12 0
6 5 0
-3 7 0
-7 1 0
4 1 0
12 13 0
-8 -4 0
-11 -8 0
-1 8 0
5 -10 0
-8 -7 0
14 7 0
-8 -13 0
4 -2 0
