c PROBLEM_060_100_30  vars=60  clausulas=100  k=2
p cnf 60 100
-29 -3 0
50 35 0
-16 60 0
59 51 0
-31 45 0
30 19 0
-18 -17 0
18 3 0
5 -8 0
-21 37 0
40 31 0
33 22 0
12 -42 0
-33 6 0
-27 -50 0
-1 -9 0
-37 -59 0
-28 37 0
-29 20 0
9 -38 0
-30 2 0
-56 -12 0
-20 -43 0
-29 35 0
38 32 0
4 -7 0
33 -24 0
-18 53 0
-3 -39 0
23 -4 0
34 26 0
-48 53 0
26 -49 0
56 -24 0
15 -16 0
21 -16 0
-7 57 0
-22 -53 0
53 -11 0
-52 -54 0
59 -32 0
15 -10 0
-33 -31 0
-24 -17 0
-44 -21 0
41 -57 0
-27 -47 0
21 -43 0
12 27 0
49 -59 0
2 -10 0
3 -58 0
-49 51 0
-22 -2 0
-12 45 0
-32 -19 0
-29 -1 0
-24 52 0
14 28 0
34 5 0
48 -50 0
36 -53 0
12 -50 0
-22 -35 0
-26 58 0
60 35 0
39 -47 0
-55 37 0
41 25 0
-38 46 0
-8 -40 0
-47 37 0
-12 58 0
5 -4 0
50 -6 0
13 40 0
-23 -60 0
55 -20 0
-39 -12 0
56 46 0
56 9 0
-60 -51 0
45 40 0
26 -55 0
19 57 0
43 -36 0
15 38 0
-47 -26 0
3 19 0
-18 1 0
25 13 0
-40 -32 0
-46 6 0
-50 -31 0
59 31 0
3 34 0
27 -46 0
36 57 0
-10 -52 0
60 -39 0
