c PROBLEM_060_100_06  vars=60  clausulas=100  k=2
p cnf 60 100
-34 -40 0
25 -23 0
50 -53 0
-56 -46 0
-18 -39 0
-38 -50 0
28 -39 0
-25 4 0
-27 -25 0
5 -6 0
56 6 0
-41 -44 0
22 3 0
-8 13 0
45 -32 0
-25 45 0
-28 -17 0
20 -40 0
-47 -58 0
-12 -10 0
2 -54 0
-29 -42 0
-9 -3 0
38 3 0
32 -56 0
-57 55 0
17 27 0
34 -44 0
-56 43 0
49 22 0
-42 -31 0
-8 22 0
32 -25 0
-17 -22 0
-41 36 0
-52 15 0
-58 -16 0
-33 57 0
28 48 0
-26 45 0
-52 22 0
-30 17 0
2 -29 0
-46 -14 0
1 28 0
-30 -53 0
46 25 0
-35 49 0
56 -39 0
-24 51 0
40 22 0
45 47 0
33 16 0
-40 -19 0
50 52 0
41 48 0
32 29 0
39 34 0
-29 -42 0
38 11 0
-11 16 0
42 -53 0
-40 26 0
-45 49 0
28 -47 0
-5 38 0
-60 40 0
33 -59 0
-49 50 0
-7 -43 0
-28 51 0
-17 -31 0
-19 -20 0
37 -52 0
-47 -20 0
57 -11 0
23 -60 0
7 -54 0
44 -21 0
25 -21 0
4 11 0
39 15 0
-51 28 0
-23 -44 0
6 4 0
-26 -1 0
49 26 0
-14 12 0
-41 -44 0
11 6 0
-54 -28 0
-41 -48 0
-9 -27 0
21 -32 0
-9 34 0
39 52 0
-28 49 0
45 -17 0
38 -31 0
-56 -8 0
