c PROBLEM_060_100_04  vars=60  clausulas=100  k=2
p cnf 60 100
39 59 0
49 33 0
-3 2 0
-16 6 0
-12 42 0
6 12 0
-21 -58 0
-60 32 0
36 58 0
-48 -2 0
19 -53 0
-39 5 0
54 50 0
-22 -6 0
14 -17 0
9 -25 0
34 -19 0
-5 -50 0
17 25 0
-35 7 0
38 51 0
-31 1 0
15 9 0
-28 -16 0
29 28 0
3 53 0
27 48 0
41 8 0
9 -30 0
50 -54 0
21 53 0
27 31 0
60 23 0
35 52 0
44 -5 0
39 46 0
33 -60 0
57 -53 0
-45 -17 0
-38 51 0
-30 -40 0
55 -20 0
17 44 0
23 -2 0
14 31 0
-40 37 0
-33 10 0
-27 -37 0
18 -59 0
-10 -5 0
-7 44 0
47 29 0
-59 8 0
-32 41 0
-56 14 0
6 -39 0
29 32 0
-22 -2 0
-24 46 0
-19 21 0
32 -48 0
-15 -57 0
60 42 0
36 48 0
-42 53 0
-24 -22 0
5 31 0
-35 5 0
-41 19 0
-49 -59 0
-5 -43 0
25 6 0
1 33 0
-7 -22 0
-13 -59 0
-6 -19 0
-3 51 0
3 -28 0
55 -4 0
-55 43 0
-18 38 0
-12 -37 0
36 43 0
11 26 0
-47 57 0
13 -21 0
49 18 0
-48 43 0
-38 -49 0
-2 -36 0
19 43 0
54 34 0
-20 -60 0
30 -15 0
46 -30 0
-22 -54 0
16 4 0
2 24 0
-44 57 0
-12 58 0
