c PROBLEM_060_100_47  vars=60  clausulas=100  k=2
p cnf 60 100
54 19 0
-15 60 0
38 49 0
-22 18 0
-5 11 0
-43 50 0
-2 -48 0
-39 49 0
48 -6 0
-23 15 0
46 -52 0
-25 18 0
-44 28 0
-39 51 0
6 52 0
-21 -52 0
-38 -5 0
-12 53 0
13 2 0
34 -29 0
32 -7 0
-4 -9 0
9 -29 0
-24 -47 0
-50 60 0
-2 7 0
54 14 0
23 -45 0
56 -28 0
3 -40 0
-42 24 0
-6 -46 0
-29 44 0
56 -46 0
-1 5 0
-45 7 0
-24 -29 0
-20 7 0
-21 -44 0
-26 -59 0
49 59 0
35 48 0
45 53 0
-27 35 0
-60 11 0
34 39 0
22 49 0
24 -31 0
19 -31 0
-22 10 0
-31 -12 0
39 -9 0
47 -33 0
-33 35 0
54 -42 0
-12 -37 0
51 10 0
23 6 0
-5 -58 0
-43 -18 0
15 -43 0
36 17 0
-4 -51 0
-43 -57 0
13 23 0
-7 -41 0
59 3 0
-40 -29 0
20 -52 0
-17 -34 0
-16 41 0
-8 5 0
47 50 0
30 -32 0
33 -22 0
58 50 0
53 8 0
-12 -58 0
-16 41 0
2 -39 0
6 -5 0
-55 -43 0
-15 -30 0
-27 42 0
56 -16 0
-18 -7 0
-5 41 0
-60 15 0
-7 26 0
42 -36 0
33 -20 0
-46 53 0
44 -60 0
-13 20 0
-50 -20 0
41 11 0
9 12 0
56 -44 0
45 -11 0
1 -28 0
