c PROBLEM_060_100_26  vars=60  clausulas=100  k=2
p cnf 60 100
-46 29 0
60 46 0
-53 -43 0
51 -23 0
27 7 0
23 -1 0
22 53 0
49 52 0
12 -11 0
-4 49 0
16 -15 0
-60 34 0
-58 -23 0
-54 -23 0
-6 42 0
-44 -21 0
-27 -19 0
-18 -11 0
8 -57 0
-45 -15 0
-39 53 0
-28 -18 0
-30 -3 0
-2 57 0
-43 26 0
14 -18 0
31 32 0
-6 -41 0
-23 -54 0
55 1 0
-24 22 0
58 -33 0
17 9 0
-48 6 0
29 -23 0
37 -58 0
50 11 0
7 -6 0
-10 -50 0
-2 26 0
39 58 0
-59 -12 0
-40 -10 0
-51 48 0
12 -58 0
-16 -57 0
-41 -48 0
-44 -30 0
10 36 0
-11 46 0
60 -48 0
-13 52 0
17 58 0
-28 37 0
-10 33 0
3 30 0
-44 -57 0
29 -60 0
-47 -50 0
49 15 0
-42 8 0
11 -56 0
-40 59 0
-37 24 0
17 -52 0
-20 38 0
13 -17 0
49 -47 0
25 50 0
-57 -14 0
54 -17 0
24 -1 0
55 25 0
-51 -27 0
34 -36 0
-4 -34 0
48 52 0
-55 -9 0
32 7 0
-57 -37 0
-54 -16 0
-35 31 0
60 17 0
-23 13 0
-25 15 0
48 -43 0
29 -10 0
-33 56 0
34 -39 0
-5 -36 0
-42 -11 0
59 6 0
47 -3 0
-34 11 0
37 4 0
47 58 0
45 -18 0
-22 -7 0
-13 43 0
-52 -19 0
