c PROBLEM_060_100_25  vars=60  clausulas=100  k=2
p cnf 60 100
9 -6 0
52 35 0
56 2 0
-55 24 0
-40 -43 0
-18 -6 0
27 -25 0
-2 14 0
-36 -29 0
-10 -18 0
-6 -59 0
-34 -46 0
27 -41 0
18 53 0
9 -59 0
-13 11 0
-58 30 0
39 22 0
-4 33 0
19 8 0
-46 38 0
-11 -47 0
-49 51 0
-20 -46 0
23 -37 0
44 -30 0
-45 11 0
-20 10 0
10 42 0
19 28 0
-17 -22 0
46 47 0
1 -46 0
-26 5 0
-20 -55 0
15 -6 0
-39 -57 0
60 20 0
56 20 0
-11 29 0
-19 40 0
15 -26 0
-17 -32 0
26 48 0
-48 -19 0
-16 -26 0
-45 4 0
-60 53 0
-28 57 0
36 -14 0
8 -22 0
28 45 0
38 35 0
41 -34 0
40 11 0
-11 -37 0
36 -14 0
-44 29 0
26 45 0
22 -35 0
58 59 0
-28 -2 0
33 -54 0
35 -53 0
13 42 0
24 49 0
-44 -12 0
-28 22 0
-37 -3 0
-8 54 0
-57 44 0
-13 -45 0
36 -17 0
23 33 0
60 50 0
16 43 0
-27 -2 0
14 35 0
6 60 0
-4 -53 0
-25 -12 0
-27 -38 0
46 53 0
-39 -27 0
-30 -21 0
9 -31 0
17 36 0
7 -29 0
25 -46 0
-50 -9 0
50 -40 0
8 -56 0
41 -27 0
37 42 0
-37 47 0
35 -38 0
-60 17 0
-28 14 0
-41 -39 0
19 43 0
