c PROBLEM_060_100_22  vars=60  clausulas=100  k=2
p cnf 60 100
-11 -2 0
59 -52 0
45 3 0
50 -2 0
-36 31 0
-55 39 0
35 -45 0
11 -30 0
-49 -34 0
-45 -33 0
9 1 0
-54 -25 0
17 -6 0
5 16 0
-30 11 0
-24 -35 0
-38 -4 0
58 -19 0
48 -17 0
-41 -53 0
-46 19 0
22 10 0
40 -16 0
26 -54 0
42 -4 0
-29 2 0
-39 -31 0
7 20 0
-45 -57 0
-46 -56 0
-23 17 0
13 42 0
26 -1 0
-37 48 0
60 53 0
-27 13 0
-22 -60 0
-44 35 0
-41 -54 0
-44 -37 0
-22 -11 0
43 40 0
60 -8 0
-45 -1 0
50 -26 0
-15 -34 0
45 -58 0
54 -57 0
-14 -59 0
12 49 0
35 11 0
-60 58 0
60 -17 0
-48 -11 0
-56 -34 0
-24 45 0
-58 50 0
12 -57 0
-6 12 0
-27 -56 0
-29 48 0
21 31 0
-20 43 0
-9 32 0
-23 60 0
-47 10 0
18 -48 0
-31 -38 0
-55 57 0
-28 -11 0
3 14 0
-21 9 0
14 -53 0
-6 -25 0
-29 2 0
-3 51 0
14 15 0
-39 -2 0
38 -28 0
15 22 0
-37 -51 0
40 -41 0
-24 18 0
22 -52 0
-12 -10 0
-15 39 0
-36 -3 0
-5 38 0
54 -51 0
18 -51 0
-19 5 0
50 23 0
19 -29 0
25 8 0
-6 10 0
-24 -23 0
-59 14 0
-43 -24 0
-53 40 0
14 42 0
