c PROBLEM_060_100_24  vars=60  clausulas=100  k=2
p cnf 60 100
58 -18 0
-30 -48 0
50 -31 0
-32 44 0
-40 -22 0
-47 -29 0
46 -31 0
-35 -33 0
4 -31 0
-21 45 0
24 36 0
35 28 0
-50 -9 0
-9 -34 0
47 35 0
27 -7 0
26 60 0
26 -15 0
15 -18 0
34 -40 0
-37 21 0
-25 33 0
27 -38 0
-14 35 0
-53 -42 0
57 24 0
46 40 0
51 -44 0
-35 52 0
-58 -33 0
6 -23 0
11 -5 0
50 -34 0
57 34 0
54 19 0
25 30 0
-9 -48 0
60 15 0
-1 -14 0
28 1 0
42 29 0
-36 49 0
56 24 0
-37 -26 0
13 59 0
-44 51 0
-42 14 0
12 3 0
56 -31 0
-1 13 0
37 -6 0
39 38 0
-4 38 0
-39 -2 0
32 47 0
39 -40 0
33 -43 0
58 43 0
-43 -49 0
19 -56 0
56 -59 0
57 38 0
-28 -22 0
-17 55 0
7 49 0
17 -11 0
2 55 0
-11 15 0
35 13 0
35 -12 0
34 48 0
60 -54 0
-25 -53 0
44 -49 0
-2 -52 0
60 33 0
56 -24 0
10 23 0
-23 55 0
18 37 0
8 -16 0
9 48 0
36 2 0
-56 34 0
30 -57 0
10 1 0
-21 -5 0
-21 -53 0
-56 22 0
-49 -50 0
-37 20 0
43 7 0
-4 -15 0
52 11 0
-8 -29 0
-18 -27 0
-29 46 0
-14 54 0
-22 41 0
46 -50 0
