c PROBLEM_060_100_14  vars=60  clausulas=100  k=2
p cnf 60 100
-53 8 0
53 55 0
33 42 0
-29 59 0
-10 -45 0
-55 -36 0
3 7 0
40 -2 0
37 47 0
-13 5 0
58 57 0
-20 37 0
-33 -38 0
-27 56 0
28 -3 0
57 -11 0
35 -25 0
-1 35 0
51 -35 0
-14 -3 0
12 23 0
16 30 0
-8 38 0
12 25 0
-41 4 0
-49 -42 0
31 -40 0
-49 -17 0
4 37 0
-54 20 0
-45 6 0
25 -19 0
-21 38 0
55 -13 0
45 8 0
43 -44 0
-41 14 0
56 -47 0
4 -10 0
34 35 0
24 -56 0
-26 6 0
-38 20 0
42 -44 0
-39 25 0
54 -34 0
-57 -11 0
44 -25 0
26 56 0
-42 8 0
-1 -26 0
-29 -48 0
42 3 0
55 27 0
-48 56 0
-59 -12 0
-15 -19 0
-32 -11 0
52 -24 0
58 39 0
10 -18 0
-33 53 0
50 18 0
32 47 0
30 -26 0
-48 54 0
16 -32 0
-13 49 0
-7 52 0
12 8 0
30 -11 0
2 -38 0
60 52 0
-47 -31 0
-57 -9 0
-21 -28 0
-9 17 0
8 5 0
-32 -22 0
42 -37 0
12 -24 0
24 49 0
41 -31 0
40 51 0
38 -46 0
2 -4 0
-7 23 0
-4 30 0
55 -5 0
-22 52 0
-1 8 0
14 41 0
22 -21 0
13 52 0
-20 -14 0
-46 -26 0
59 -16 0
8 22 0
3 2 0
18 30 0
