c PROBLEM_060_100_18  vars=60  clausulas=100  k=2
p cnf 60 100
-24 -58 0
-20 -21 0
-5 16 0
-23 59 0
-31 -7 0
-27 41 0
23 -31 0
-3 -46 0
-43 15 0
-2 50 0
-14 19 0
45 -38 0
19 44 0
28 23 0
48 -40 0
-10 58 0
51 5 0
38 -6 0
-42 -18 0
-52 -57 0
50 -5 0
-7 -21 0
-39 60 0
-24 -39 0
14 -29 0
3 10 0
56 -50 0
20 34 0
14 -47 0
59 8 0
-20 29 0
48 26 0
18 -49 0
12 -9 0
-3 36 0
-9 -10 0
-55 -10 0
25 -10 0
-60 -57 0
4 -33 0
-5 4 0
-33 -51 0
-48 -33 0
16 57 0
-54 50 0
-9 38 0
-50 39 0
48 -34 0
-4 -16 0
44 -4 0
-32 -30 0
-24 2 0
10 26 0
24 -55 0
8 -46 0
43 -13 0
54 20 0
47 28 0
11 -57 0
-9 37 0
29 -50 0
-35 59 0
-36 45 0
10 58 0
43 -12 0
-45 -53 0
60 49 0
-1 -57 0
56 43 0
24 37 0
46 -30 0
7 24 0
-18 7 0
15 47 0
44 16 0
44 10 0
-30 -36 0
-37 7 0
-26 -18 0
-42 -11 0
-6 25 0
27 15 0
-50 26 0
59 35 0
14 48 0
51 54 0
47 -39 0
-55 -31 0
-39 -37 0
-51 -58 0
-32 18 0
22 17 0
-23 -27 0
36 -38 0
38 -52 0
-48 21 0
22 11 0
-45 12 0
-57 55 0
-17 -41 0
