c PROBLEM_060_100_09  vars=60  clausulas=100  k=2
p cnf 60 100
-34 15 0
-29 36 0
-19 -56 0
-16 11 0
-13 26 0
-17 24 0
2 9 0
46 -52 0
-16 -40 0
-45 23 0
51 -24 0
52 -32 0
22 -28 0
35 59 0
-46 -42 0
-7 17 0
8 -53 0
-14 4 0
35 58 0
-47 -58 0
-53 54 0
-47 21 0
29 -20 0
26 -3 0
17 -33 0
-47 27 0
-39 15 0
24 -44 0
-12 -50 0
38 -45 0
-7 -14 0
-10 27 0
-55 9 0
53 21 0
47 27 0
29 -40 0
27 -38 0
-21 -5 0
-33 -11 0
-41 13 0
33 36 0
48 -38 0
9 -21 0
-55 -58 0
20 7 0
11 20 0
-37 -9 0
26 -32 0
-5 9 0
45 -44 0
55 -6 0
30 57 0
50 46 0
-47 54 0
-19 -36 0
26 -45 0
17 -32 0
22 43 0
6 48 0
-60 -22 0
-31 -26 0
-12 -11 0
-42 -2 0
6 37 0
-31 -55 0
-46 36 0
46 3 0
1 15 0
-47 44 0
47 15 0
-57 35 0
20 -26 0
-56 48 0
41 -45 0
-21 26 0
-23 42 0
54 7 0
54 10 0
44 25 0
-11 -57 0
-16 -23 0
-49 -46 0
-4 -43 0
-3 48 0
31 18 0
-33 -6 0
-11 -45 0
-28 43 0
-2 -1 0
44 -54 0
-25 -16 0
8 51 0
-23 49 0
-40 -50 0
10 -60 0
-14 30 0
14 6 0
-39 -53 0
23 -58 0
41 -31 0
