c PROBLEM_060_100_45  vars=60  clausulas=100  k=2
p cnf 60 100
18 -16 0
60 41 0
-41 35 0
-40 -5 0
24 -39 0
35 4 0
1 26 0
-3 30 0
50 33 0
-37 22 0
-9 -45 0
44 15 0
-35 51 0
6 23 0
-7 -54 0
55 -1 0
-15 -26 0
-41 -18 0
51 -26 0
15 -17 0
8 4 0
52 2 0
25 -16 0
17 50 0
-1 -4 0
-12 60 0
-30 37 0
38 -18 0
-9 19 0
-18 -54 0
-38 17 0
-40 56 0
25 49 0
-17 -2 0
-48 -2 0
-6 -22 0
32 -37 0
12 2 0
59 -24 0
16 11 0
-8 26 0
-19 -29 0
-33 34 0
19 -54 0
-45 36 0
-55 -21 0
-56 -8 0
5 -39 0
-3 37 0
34 31 0
52 -30 0
10 39 0
-12 58 0
-32 -7 0
-43 35 0
-5 -32 0
34 -57 0
4 34 0
17 6 0
20 31 0
-38 -51 0
30 47 0
36 -5 0
42 60 0
-20 -19 0
-45 16 0
11 10 0
-13 -29 0
-42 3 0
-55 33 0
32 -5 0
8 -14 0
38 21 0
-40 -8 0
-6 -60 0
5 55 0
-24 -10 0
53 30 0
-4 -47 0
46 34 0
-27 -29 0
-27 56 0
42 -39 0
-25 -3 0
25 -45 0
-45 -33 0
-42 -10 0
-4 18 0
56 2 0
33 -35 0
-10 -59 0
41 39 0
56 -31 0
-5 31 0
-7 39 0
45 30 0
46 11 0
-19 -13 0
28 -10 0
-47 -16 0
