c PROBLEM_060_100_13  vars=60  clausulas=100  k=2
p cnf 60 100
-34 54 0
-10 -21 0
5 8 0
-58 -39 0
20 -4 0
6 -33 0
44 -15 0
32 -22 0
44 -12 0
-38 -16 0
-22 -58 0
-57 -4 0
26 -3 0
-20 -48 0
12 48 0
60 33 0
43 -13 0
-56 -40 0
-56 -16 0
-38 41 0
9 -56 0
-35 -32 0
23 9 0
9 -15 0
-51 -50 0
-30 41 0
-38 10 0
-39 -24 0
10 42 0
-46 -43 0
24 17 0
27 28 0
38 35 0
-60 -7 0
-25 26 0
14 -18 0
-57 18 0
-14 1 0
31 -2 0
-50 -23 0
-40 -28 0
8 24 0
-29 -14 0
38 18 0
-12 2 0
-17 19 0
19 -36 0
2 60 0
52 51 0
28 45 0
16 -56 0
47 57 0
-27 -30 0
53 36 0
46 23 0
59 6 0
-31 35 0
-25 -13 0
-55 -33 0
-60 3 0
-57 -22 0
-43 53 0
-53 -21 0
-6 -36 0
11 -7 0
-53 50 0
-53 7 0
-10 41 0
58 59 0
50 -31 0
-57 -17 0
-18 -28 0
19 37 0
37 30 0
-1 -42 0
-1 -23 0
45 49 0
44 17 0
-51 -30 0
-19 -10 0
33 24 0
56 25 0
5 52 0
-1 -42 0
-25 41 0
26 47 0
42 -5 0
19 4 0
-20 -29 0
-18 24 0
44 24 0
-53 17 0
-60 -26 0
-30 -46 0
-47 -24 0
-35 -18 0
1 12 0
20 42 0
59 -33 0
34 13 0
