c PROBLEM_060_100_05  vars=60  clausulas=100  k=2
p cnf 60 100
-19 54 0
-8 -35 0
47 -15 0
41 17 0
-48 -45 0
55 11 0
47 -37 0
28 24 0
-40 -35 0
-42 -30 0
54 -41 0
-39 -3 0
7 49 0
10 -18 0
34 -28 0
-21 -30 0
10 53 0
8 -23 0
14 -51 0
-57 -49 0
-15 25 0
2 -33 0
24 22 0
36 -59 0
-47 -28 0
-44 -11 0
-16 30 0
-9 33 0
-37 -59 0
-55 -5 0
46 36 0
22 1 0
19 -38 0
12 -39 0
50 -52 0
-20 -52 0
-48 -54 0
-11 -19 0
56 4 0
30 -39 0
-11 -35 0
-18 -7 0
40 -42 0
-15 -13 0
24 -29 0
-18 -60 0
25 -30 0
15 51 0
24 -48 0
-20 29 0
6 -38 0
-6 1 0
19 1 0
13 -27 0
51 53 0
-13 -53 0
-54 -35 0
-18 -31 0
37 58 0
-32 -40 0
-27 -47 0
-28 -27 0
55 26 0
43 -3 0
-21 10 0
12 -26 0
59 -17 0
22 -11 0
38 12 0
-40 -55 0
24 21 0
15 -9 0
-46 -16 0
-29 -60 0
59 -19 0
1 -36 0
44 -48 0
51 17 0
58 -8 0
-9 -40 0
-33 -6 0
-5 -45 0
54 49 0
55 29 0
-7 18 0
47 34 0
-36 44 0
14 -55 0
-42 -40 0
-29 -22 0
14 7 0
-43 -23 0
10 8 0
-21 -58 0
13 -12 0
-23 33 0
-21 60 0
-30 48 0
43 -14 0
-2 22 0
