c PROBLEM_060_100_01  vars=60  clausulas=100  k=2
p cnf 60 100
37 50 0
-30 16 0
-54 -20 0
24 -3 0
-49 22 0
11 -36 0
48 -25 0
-41 6 0
-39 26 0
56 -30 0
33 -2 0
59 -28 0
-46 -12 0
19 -60 0
-55 -1 0
-5 33 0
38 -39 0
53 15 0
-46 57 0
1 -44 0
-5 -12 0
-4 31 0
-39 6 0
18 16 0
-41 22 0
25 8 0
-10 -59 0
27 -11 0
-60 49 0
-20 47 0
13 -19 0
-29 52 0
29 40 0
-18 -37 0
-27 50 0
-23 24 0
-13 -48 0
-58 -30 0
14 -13 0
7 38 0
-13 60 0
46 -17 0
59 54 0
11 -47 0
24 34 0
-54 -53 0
46 -22 0
58 -28 0
58 -26 0
-57 45 0
-52 8 0
-16 15 0
29 4 0
6 43 0
43 22 0
-2 10 0
-48 -27 0
59 25 0
-35 -27 0
41 1 0
-44 -18 0
47 -53 0
10 43 0
30 32 0
-39 -36 0
23 -4 0
39 -44 0
-21 -7 0
33 44 0
37 51 0
3 -45 0
-35 6 0
22 36 0
20 24 0
18 -53 0
34 -55 0
14 -37 0
-56 51 0
13 53 0
-37 -6 0
51 -60 0
-19 -32 0
-41 -47 0
34 37 0
7 -24 0
13 42 0
-45 -41 0
13 57 0
40 -42 0
-31 15 0
25 -44 0
54 -29 0
-59 30 0
-12 -10 0
-9 16 0
-17 8 0
14 9 0
-3 -30 0
-51 30 0
-19 37 0
