c PROBLEM_060_100_35  vars=60  clausulas=100  k=2
p cnf 60 100
-7 48 0
-43 -57 0
-3 -48 0
57 -19 0
59 13 0
44 5 0
-40 55 0
-15 2 0
57 29 0
5 -8 0
-30 47 0
-28 17 0
-27 -44 0
12 27 0
26 18 0
47 14 0
18 16 0
-47 -11 0
30 21 0
-32 34 0
-30 54 0
-24 36 0
3 -1 0
-6 -31 0
13 -26 0
7 -44 0
-48 12 0
-21 14 0
-37 39 0
21 -12 0
43 -39 0
-24 -23 0
33 53 0
-50 -4 0
45 38 0
-37 7 0
41 25 0
-39 -7 0
-49 25 0
-25 -20 0
-59 54 0
-51 -5 0
-54 -6 0
-16 -37 0
-7 10 0
21 52 0
-48 -34 0
-26 -29 0
28 1 0
-11 -59 0
-54 -9 0
58 -17 0
-53 -59 0
6 -4 0
-1 3 0
54 27 0
-49 55 0
-30 -6 0
28 -27 0
32 35 0
2 -1 0
-32 33 0
46 -52 0
-55 42 0
-38 -23 0
-41 -50 0
-49 -48 0
-10 21 0
43 -22 0
23 -36 0
-6 53 0
-20 -19 0
-49 -26 0
-46 -31 0
53 55 0
-19 -21 0
-45 50 0
-8 -59 0
20 16 0
-13 -60 0
51 14 0
-20 -45 0
35 30 0
11 -6 0
-36 23 0
-16 -51 0
58 -40 0
-50 47 0
4 11 0
59 -49 0
57 -2 0
-32 -56 0
22 8 0
-44 7 0
37 -22 0
38 -42 0
-31 22 0
24 -11 0
-34 -15 0
14 12 0
