c PROBLEM_060_100_42  vars=60  clausulas=100  k=2
p cnf 60 100
53 12 0
-39 12 0
-22 24 0
6 -54 0
-27 34 0
-21 -45 0
5 49 0
-47 27 0
37 10 0
47 -9 0
37 31 0
3 28 0
37 23 0
-58 -30 0
-56 3 0
6 -1 0
-18 -33 0
33 12 0
-12 22 0
-21 -26 0
38 19 0
-49 -31 0
11 -2 0
-40 -17 0
-7 31 0
-35 8 0
43 -15 0
-46 47 0
4 42 0
-2 9 0
55 -12 0
-22 -32 0
16 35 0
35 -39 0
59 -50 0
31 -57 0
51 -60 0
48 -39 0
23 53 0
-55 -60 0
-20 39 0
20 34 0
-34 17 0
-60 1 0
45 -7 0
-37 -28 0
5 -23 0
-60 -3 0
44 -13 0
-36 -41 0
-57 -29 0
-12 -16 0
-38 35 0
-30 14 0
-48 12 0
-24 45 0
15 -3 0
12 48 0
28 -23 0
-1 -4 0
52 -36 0
29 46 0
30 -7 0
-6 49 0
-58 -44 0
10 36 0
-18 43 0
29 50 0
6 54 0
50 -16 0
28 -45 0
5 -21 0
6 -14 0
15 -42 0
7 22 0
-41 -9 0
-2 -15 0
28 15 0
45 -51 0
-21 -56 0
43 -16 0
-42 49 0
-59 39 0
-37 14 0
35 19 0
42 19 0
-53 60 0
25 32 0
-27 -29 0
35 -60 0
-47 -22 0
3 -54 0
39 26 0
-45 -28 0
4 -26 0
-22 52 0
-57 -19 0
8 -47 0
-44 -4 0
16 -43 0
