c PROBLEM_060_100_28  vars=60  clausulas=100  k=2
p cnf 60 100
-51 17 0
2 35 0
-1 30 0
-27 12 0
10 -49 0
56 -37 0
17 3 0
44 -52 0
-59 27 0
-33 -52 0
44 48 0
37 -2 0
18 -60 0
-17 -27 0
11 23 0
-10 8 0
-41 -6 0
15 6 0
-11 43 0
19 -1 0
-2 -27 0
39 -19 0
-51 34 0
27 -40 0
-39 -9 0
-20 -44 0
-30 11 0
48 9 0
56 -3 0
-32 8 0
5 14 0
33 38 0
-42 49 0
-49 23 0
-57 26 0
45 -49 0
58 5 0
-22 48 0
33 1 0
18 -20 0
2 -25 0
-2 -18 0
34 -4 0
-60 32 0
54 6 0
-5 -36 0
-17 -7 0
48 -39 0
-14 20 0
-43 28 0
40 -60 0
21 29 0
-53 -31 0
-7 37 0
-59 13 0
-34 9 0
13 -9 0
40 29 0
-11 -17 0
-12 -14 0
-46 54 0
-50 15 0
36 -46 0
30 35 0
21 -52 0
46 -30 0
1 -48 0
-45 -52 0
-39 13 0
-35 -15 0
58 54 0
42 -18 0
-21 30 0
60 -48 0
-6 44 0
-46 9 0
32 29 0
-3 23 0
17 -21 0
34 -26 0
-32 48 0
-28 56 0
43 -41 0
-46 50 0
23 4 0
24 -14 0
-22 -47 0
18 -52 0
-43 42 0
1 -26 0
52 43 0
32 15 0
-57 -55 0
-33 -24 0
32 -48 0
-23 -10 0
22 17 0
51 9 0
42 16 0
-2 -6 0
