c PROBLEM_015_100_45  vars=15  clausulas=100  k=2
p cnf 15 100
-1 -6 0
-2 -1 0
7 -14 0
10 -15 0
-14 -3 0
-3 4 0
-12 6 0
-4 -14 0
12 10 0
9 7 0
5 -10 0
-13 3 0
-3 7 0
3 -7 0
5 13 0
15 12 0
10 -11 0
-3 -5 0
11 12 0
4 6 0
14 -12 0
1 7 0
13 4 0
8 -13 0
13 -4 0
-5 -12 0
-6 12 0
9 6 0
9 -3 0
-6 4 0
-11 -2 0
-13 5 0
-6 -11 0
14 2 0
-12 -15 0
3 10 0
1 -2 0
-7 -5 0
-3 11 0
-8 13 0
4 10 0
1 13 0
-13 -12 0
-14 -11 0
13 -10 0
2 10 0
-12 4 0
-3 -5 0
-1 -9 0
-12 -13 0
-13 -15 0
4 -1 0
-15 -10 0
-3 -5 0
-6 3 0
14 -7 0
15 1 0
2 5 0
-2 13 0
-7 4 0
-9 -14 0
3 -7 0
10 5 0
-15 13 0
9 2 0
8 -4 0
-5 -6 0
3 -9 0
-13 -15 0
15 -8 0
7 -8 0
-2 8 0
14 -10 0
-7 -1 0
-3 -7 0
7 15 0
-4 -14 0
-5 1 0
2 5 0
-15 4 0
3 13 0
8 -3 0
2 3 0
-5 6 0
-2 5 0
10 12 0
-14 -7 0
-2 14 0
-15 3 0
-12 4 0
-3 1 0
8 13 0
5 4 0
12 -7 0
-3 10 0
8 14 0
2 -13 0
-2 11 0
-15 5 0
8 -2 0
