c PROBLEM_015_100_18  vars=15  clausulas=100  k=2
p cnf 15 100
-12 11 0
-4 -10 0
4 -13 0
-12 5 0
-10 3 0
15 4 0
-3 -2 0
-5 12 0
-15 3 0
10 7 0
5 8 0
-5 12 0
-3 -7 0
-3 -5 0
3 -7 0
9 -15 0
-2 10 0
14 4 0
4 -3 0
-11 14 0
7 15 0
-11 -3 0
-9 3 0
-11 -1 0
7 -13 0
-7 -8 0
-7 -14 0
-1 9 0
-9 4 0
-7 -13 0
-5 12 0
6 10 0
1 15 0
-13 4 0
12 3 0
2 5 0
-2 4 0
-7 12 0
11 -6 0
-5 3 0
-9 15 0
-10 14 0
-15 5 0
-8 -13 0
-4 -12 0
-5 11 0
-1 13 0
11 12 0
-6 -13 0
13 7 0
-15 -3 0
-13 -7 0
-15 3 0
15 8 0
-13 -11 0
11 8 0
9 -4 0
12 15 0
14 5 0
-6 -12 0
3 8 0
13 3 0
4 8 0
8 11 0
3 14 0
9 12 0
-8 7 0
14 -13 0
11 10 0
6 12 0
3 13 0
-7 15 0
-5 -6 0
14 -12 0
14 -10 0
11 -8 0
7 9 0
-12 -8 0
3 -6 0
6 1 0
-1 8 0
-15 10 0
-5 -6 0
9 -1 0
-6 13 0
15 2 0
8 -7 0
-11 4 0
1 -8 0
3 12 0
2 14 0
8 2 0
1 7 0
4 11 0
4 7 0
-1 -5 0
-11 2 0
6 9 0
-3 12 0
-14 1 0
