c PROBLEM_015_100_17  vars=15  clausulas=100  k=2
p cnf 15 100
-7 -4 0
7 8 0
-11 7 0
-8 13 0
11 -12 0
-10 5 0
-13 14 0
-13 -4 0
-15 13 0
-14 9 0
-11 -1 0
-14 -9 0
-3 2 0
10 -4 0
-15 12 0
-2 -8 0
9 13 0
3 -1 0
6 1 0
3 13 0
-11 6 0
-14 5 0
-2 5 0
3 -9 0
12 8 0
2 4 0
-5 -1 0
-13 6 0
-12 9 0
4 14 0
4 1 0
-1 11 0
8 14 0
12 8 0
4 -2 0
5 1 0
-1 -5 0
6 -4 0
-9 15 0
-2 13 0
-2 -3 0
11 -14 0
15 -1 0
15 5 0
7 4 0
6 2 0
11 -9 0
8 -5 0
-5 12 0
14 15 0
9 -1 0
13 15 0
-3 13 0
-12 -4 0
-8 -3 0
-3 5 0
-12 -2 0
14 10 0
-1 14 0
4 14 0
10 -4 0
15 -14 0
8 -11 0
-11 4 0
-3 10 0
3 10 0
5 -13 0
9 3 0
-15 8 0
11 -10 0
15 13 0
-14 7 0
-12 -14 0
9 1 0
-3 -6 0
4 10 0
14 3 0
-4 -10 0
-13 -12 0
7 12 0
-15 -8 0
5 15 0
2 -6 0
-7 14 0
2 -15 0
-12 5 0
12 -14 0
-13 -3 0
8 14 0
-2 -9 0
-3 15 0
-14 5 0
3 9 0
5 -2 0
-7 6 0
8 1 0
1 -11 0
-2 3 0
-8 -2 0
9 -5 0
