c PROBLEM_015_100_25  vars=15  clausulas=100  k=2
p cnf 15 100
-4 3 0
-12 4 0
-11 1 0
-9 3 0
7 15 0
-11 4 0
3 4 0
7 12 0
10 -5 0
10 3 0
-13 -2 0
-11 10 0
-8 14 0
-14 7 0
3 -6 0
-1 12 0
15 -5 0
-15 -1 0
-14 -7 0
12 -6 0
15 -10 0
6 -12 0
-4 3 0
5 10 0
-4 -6 0
-12 5 0
9 12 0
-8 -14 0
-10 9 0
14 15 0
2 -12 0
8 -12 0
-11 14 0
-1 -14 0
10 -14 0
-9 -4 0
-9 13 0
14 -6 0
-11 -12 0
-3 15 0
-13 -10 0
-3 6 0
-6 -14 0
1 -5 0
-9 -8 0
12 1 0
2 10 0
5 4 0
-8 -13 0
-15 14 0
-8 7 0
-15 3 0
15 11 0
7 2 0
3 9 0
-10 8 0
-9 14 0
-13 6 0
-5 -3 0
-5 -2 0
1 5 0
8 7 0
-3 -13 0
-5 1 0
-1 14 0
7 5 0
-14 4 0
-11 -6 0
-1 13 0
-1 2 0
-1 2 0
-10 3 0
3 -14 0
-13 -2 0
5 7 0
-10 11 0
15 -2 0
-1 7 0
-9 -1 0
-11 2 0
-4 12 0
7 11 0
6 -9 0
4 -7 0
3 -15 0
-9 -15 0
-3 12 0
-11 -3 0
4 -10 0
-3 1 0
7 14 0
-9 7 0
-10 -1 0
-10 7 0
-10 7 0
15 -1 0
-10 8 0
-7 -4 0
7 4 0
6 4 0
