c PROBLEM_015_100_44  vars=15  clausulas=100  k=2
p cnf 15 100
-13 -14 0
12 -1 0
-10 -13 0
12 -7 0
-15 8 0
-14 15 0
12 -5 0
-15 -4 0
15 -14 0
12 9 0
5 9 0
14 -7 0
-12 -2 0
10 2 0
-2 -10 0
-9 -4 0
-9 -11 0
-11 12 0
-13 -3 0
-6 9 0
6 4 0
2 -3 0
-7 -1 0
13 -6 0
-1 -9 0
-11 7 0
-6 -14 0
13 -14 0
-10 -8 0
4 -3 0
-2 -15 0
-9 11 0
15 14 0
-6 8 0
-15 -10 0
6 2 0
7 -6 0
-6 7 0
-7 -13 0
1 5 0
-7 6 0
4 -13 0
5 4 0
6 -8 0
-12 -8 0
13 -3 0
15 -12 0
4 14 0
13 10 0
9 15 0
-3 1 0
-4 15 0
13 -8 0
9 -15 0
-8 10 0
3 6 0
-4 6 0
-9 -5 0
4 -7 0
-9 1 0
-6 -10 0
-1 4 0
11 -14 0
15 3 0
-1 14 0
-11 13 0
7 4 0
-9 11 0
-14 8 0
-4 6 0
-9 -3 0
-4 -10 0
-9 -4 0
9 11 0
-1 13 0
2 -3 0
-15 6 0
6 -4 0
-11 8 0
-15 -9 0
-14 -11 0
-13 4 0
-2 -5 0
5 -1 0
6 -11 0
7 3 0
14 1 0
11 -13 0
-4 -3 0
-11 12 0
14 4 0
14 -11 0
-6 5 0
13 -9 0
-8 15 0
-4 -8 0
14 -8 0
11 -12 0
10 6 0
9 -13 0
