c PROBLEM_015_100_13  vars=15  clausulas=100  k=2
p cnf 15 100
6 -14 0
13 4 0
7 15 0
10 2 0
-3 -11 0
11 8 0
-1 11 0
1 14 0
-11 2 0
-5 1 0
-6 -13 0
-4 -11 0
-5 12 0
-10 -9 0
-8 2 0
-9 -6 0
-3 7 0
12 6 0
-5 -2 0
-11 -14 0
-1 13 0
-4 -13 0
-9 -10 0
9 5 0
-1 -14 0
5 11 0
14 4 0
-8 5 0
-4 -13 0
-10 -3 0
-1 -5 0
10 2 0
11 -8 0
10 4 0
14 -5 0
-3 1 0
12 -2 0
10 -9 0
6 8 0
4 6 0
2 -1 0
7 -15 0
4 -15 0
-1 -7 0
6 7 0
-14 -12 0
14 2 0
-10 5 0
10 -5 0
15 -13 0
-9 -2 0
15 -11 0
12 -1 0
7 4 0
-3 -4 0
9 4 0
-11 -2 0
13 -5 0
14 -15 0
2 -1 0
-6 4 0
15 1 0
-10 4 0
-9 13 0
-15 -12 0
12 -5 0
-10 -2 0
-8 -4 0
-15 -14 0
9 12 0
-15 -7 0
10 -11 0
9 -3 0
5 -1 0
-13 -14 0
-14 -6 0
8 7 0
4 14 0
1 -2 0
-12 -4 0
-2 3 0
8 -15 0
-8 9 0
4 12 0
-10 15 0
11 -7 0
-2 -14 0
7 3 0
10 -11 0
-5 9 0
-6 1 0
-2 -11 0
-7 5 0
14 -12 0
-12 13 0
-15 2 0
5 9 0
-1 14 0
4 11 0
14 -7 0
