c PROBLEM_015_100_16  vars=15  clausulas=100  k=2
p cnf 15 100
9 2 0
6 -14 0
9 -2 0
3 12 0
10 -15 0
8 -11 0
2 12 0
10 7 0
2 9 0
-12 -9 0
1 -6 0
-1 6 0
-9 -13 0
-9 -14 0
8 6 0
13 -1 0
-15 6 0
7 -12 0
-9 14 0
13 14 0
14 1 0
11 5 0
-14 -12 0
9 -7 0
-14 -15 0
-8 6 0
-14 -2 0
-11 -15 0
8 -15 0
-2 -8 0
-9 -11 0
8 10 0
13 5 0
-1 -14 0
7 -10 0
-3 7 0
2 11 0
4 6 0
8 5 0
-4 -9 0
14 -5 0
15 -2 0
-15 -11 0
14 -6 0
-12 -1 0
10 -14 0
13 -10 0
-11 4 0
-4 3 0
-2 -8 0
-15 7 0
13 -10 0
13 12 0
-3 -10 0
15 6 0
2 -13 0
13 -4 0
2 6 0
-13 -14 0
6 15 0
15 9 0
8 -7 0
-6 -15 0
12 7 0
-12 6 0
-2 -13 0
-13 3 0
-1 -7 0
-2 13 0
-5 11 0
1 -8 0
7 2 0
-14 8 0
-13 12 0
-2 -7 0
-10 -3 0
-1 -5 0
1 -7 0
13 -15 0
11 7 0
7 1 0
-7 2 0
1 2 0
-5 15 0
-4 1 0
-10 9 0
11 -5 0
-1 -14 0
15 -2 0
7 12 0
14 -12 0
13 -15 0
-8 14 0
8 -10 0
-15 -9 0
2 3 0
-12 -6 0
-13 -1 0
13 8 0
-1 -6 0
