c PROBLEM_015_100_46  vars=15  clausulas=100  k=2
p cnf 15 100
12 2 0
-14 -6 0
-1 13 0
6 11 0
-14 5 0
-1 -12 0
-13 -14 0
-9 -14 0
-12 -13 0
14 13 0
-13 -15 0
-13 7 0
-11 12 0
1 -12 0
1 5 0
4 -12 0
-3 -10 0
-1 7 0
-14 15 0
1 14 0
-7 -5 0
-5 8 0
6 -10 0
-10 -4 0
12 14 0
-5 13 0
-13 -2 0
2 -15 0
10 -5 0
5 -9 0
12 10 0
2 -4 0
5 -3 0
-14 -3 0
-13 -7 0
-10 6 0
-5 -2 0
2 5 0
2 -9 0
-15 1 0
4 -13 0
-11 13 0
-12 -14 0
-13 2 0
2 -1 0
5 -9 0
11 2 0
6 -7 0
15 -11 0
-13 8 0
12 -13 0
12 -1 0
-11 -4 0
-2 -12 0
11 8 0
8 -3 0
-14 7 0
1 -6 0
1 4 0
12 13 0
-15 4 0
-8 5 0
-6 4 0
-1 -9 0
-5 -8 0
8 -5 0
10 -3 0
-15 -1 0
6 10 0
-15 3 0
14 -3 0
-12 9 0
-7 -5 0
-10 8 0
13 6 0
-12 2 0
-15 5 0
11 -1 0
6 -7 0
2 -11 0
13 -9 0
-14 -13 0
-5 1 0
9 5 0
5 8 0
-3 9 0
6 8 0
10 -11 0
-6 -7 0
-7 5 0
-8 -10 0
-11 -14 0
-5 11 0
15 4 0
-11 -2 0
8 14 0
-15 8 0
-4 -15 0
5 9 0
14 5 0
