c PROBLEM_015_100_15  vars=15  clausulas=100  k=2
p cnf 15 100
4 -9 0
5 14 0
-12 -5 0
-3 -14 0
-1 -9 0
-13 8 0
-6 7 0
-8 3 0
-5 -9 0
8 14 0
-14 7 0
-4 2 0
9 -13 0
4 -9 0
-2 -7 0
-3 -9 0
14 -9 0
-7 15 0
11 -2 0
13 -2 0
-7 4 0
2 -12 0
4 11 0
8 10 0
10 -3 0
14 -4 0
-12 15 0
-15 -11 0
-5 7 0
9 -4 0
-15 12 0
-2 1 0
-11 -1 0
15 10 0
-10 5 0
-13 11 0
-5 4 0
2 5 0
11 -15 0
-9 1 0
-6 -15 0
10 -2 0
-14 6 0
-10 7 0
-15 -4 0
-11 -10 0
-9 -7 0
-10 -14 0
10 3 0
7 8 0
-5 3 0
11 -10 0
8 7 0
-4 -5 0
1 3 0
-8 6 0
-15 -5 0
5 -2 0
8 -9 0
15 12 0
11 -13 0
4 7 0
6 -8 0
-15 9 0
-11 -6 0
2 -15 0
-10 5 0
13 11 0
-12 8 0
-13 -9 0
10 -5 0
1 6 0
-13 -7 0
-10 -2 0
14 -15 0
-11 -12 0
7 2 0
7 10 0
-14 15 0
14 -8 0
-8 -14 0
-8 -2 0
14 -10 0
-14 -11 0
-9 8 0
9 15 0
-6 8 0
4 13 0
-5 3 0
14 -8 0
11 -13 0
-15 -9 0
15 10 0
5 -12 0
-11 15 0
-2 -4 0
-9 11 0
3 10 0
1 -15 0
12 -4 0
