c PROBLEM_015_100_02  vars=15  clausulas=100  k=2
p cnf 15 100
-15 -6 0
-1 11 0
-9 3 0
10 -2 0
10 -11 0
-10 -9 0
5 15 0
11 -14 0
5 -13 0
4 13 0
4 10 0
-3 2 0
-9 2 0
-13 15 0
11 12 0
-13 15 0
-10 14 0
-14 13 0
2 -4 0
-13 -3 0
9 4 0
-13 1 0
-4 10 0
-10 -4 0
-14 12 0
-9 -14 0
-1 -10 0
-13 12 0
-15 13 0
-1 7 0
12 4 0
-12 -4 0
14 5 0
12 -3 0
13 -11 0
11 13 0
-9 -12 0
-10 -9 0
-5 -12 0
-15 4 0
4 11 0
-15 2 0
9 -4 0
-10 -15 0
2 9 0
7 3 0
14 -1 0
-7 -6 0
8 -4 0
1 9 0
-9 11 0
-14 3 0
-10 7 0
8 14 0
-15 5 0
-14 -9 0
5 2 0
-11 -7 0
-8 6 0
-4 1 0
13 15 0
7 12 0
1 11 0
-12 -11 0
7 -13 0
7 6 0
-11 15 0
3 8 0
1 -6 0
-9 6 0
-13 11 0
-7 15 0
6 -14 0
-12 -5 0
15 -5 0
5 8 0
-12 -5 0
11 -8 0
8 4 0
-11 1 0
6 -4 0
-5 -4 0
-15 3 0
-5 -4 0
3 -1 0
-11 13 0
-3 13 0
11 -14 0
1 -9 0
6 7 0
13 -12 0
1 -11 0
-1 -14 0
10 7 0
-10 -11 0
6 -7 0
1 15 0
-2 9 0
11 -5 0
10 -5 0
