c PROBLEM_015_100_28  vars=15  clausulas=100  k=2
p cnf 15 100
-8 13 0
-12 -11 0
-5 -9 0
11 -14 0
13 -10 0
-9 8 0
10 -14 0
8 6 0
15 11 0
7 -11 0
-15 10 0
13 -14 0
-7 6 0
2 -6 0
-14 -9 0
-9 7 0
8 -10 0
7 4 0
12 -13 0
7 -5 0
11 14 0
-12 -14 0
8 12 0
6 3 0
3 -9 0
-2 -10 0
10 8 0
-13 9 0
-15 -12 0
-14 5 0
4 3 0
-6 -2 0
-9 10 0
-13 11 0
4 -8 0
1 4 0
14 -9 0
4 9 0
-15 3 0
3 9 0
-6 -10 0
1 2 0
-7 -3 0
-5 -13 0
-12 -10 0
-10 3 0
13 -11 0
-7 8 0
-7 5 0
13 -3 0
8 14 0
7 10 0
12 3 0
4 1 0
10 13 0
4 -3 0
4 -3 0
-12 -1 0
3 10 0
1 -15 0
12 -8 0
3 -10 0
12 -2 0
6 3 0
-2 -14 0
12 15 0
6 -13 0
-4 -2 0
-10 13 0
-3 1 0
-3 -13 0
4 -13 0
-12 -3 0
8 -11 0
11 12 0
-5 3 0
-13 12 0
-8 15 0
-8 11 0
-5 8 0
12 1 0
10 -1 0
-6 8 0
-13 5 0
3 7 0
-1 -8 0
-9 2 0
-1 8 0
-14 -3 0
-4 -12 0
10 -1 0
2 -6 0
2 -4 0
14 -8 0
6 1 0
7 -10 0
5 -2 0
3 -5 0
10 1 0
9 11 0
