c PROBLEM_015_100_37  vars=15  clausulas=100  k=2
p cnf 15 100
-6 3 0
10 -5 0
2 8 0
15 -12 0
10 -1 0
-2 13 0
-14 4 0
7 14 0
-14 -3 0
-10 3 0
-15 -1 0
8 7 0
-7 -11 0
-3 -11 0
4 -9 0
12 6 0
7 9 0
-8 13 0
13 -11 0
4 11 0
11 -12 0
-7 -1 0
12 15 0
-9 -2 0
13 -6 0
-6 1 0
7 -4 0
12 13 0
-9 -11 0
7 9 0
9 -8 0
-2 13 0
-1 -12 0
3 -6 0
11 1 0
-15 -3 0
5 3 0
4 -5 0
9 -13 0
-8 7 0
7 -2 0
5 -9 0
7 2 0
14 11 0
13 -5 0
-10 -9 0
-8 13 0
-9 6 0
-2 -15 0
-15 -2 0
-12 13 0
1 6 0
12 -1 0
-15 4 0
-5 -3 0
-8 9 0
10 6 0
-10 15 0
15 14 0
2 3 0
3 13 0
-2 -11 0
10 14 0
-2 5 0
-9 -14 0
-9 12 0
-3 1 0
11 13 0
6 -4 0
-13 14 0
-3 -8 0
-2 -6 0
1 -14 0
1 10 0
-10 -4 0
-15 12 0
4 9 0
14 -6 0
-8 15 0
-14 -9 0
-13 14 0
-8 14 0
-10 6 0
-4 10 0
9 -14 0
7 5 0
-5 -4 0
12 -8 0
-2 -3 0
-6 -9 0
-4 1 0
12 7 0
-4 -8 0
10 -9 0
-6 13 0
3 2 0
-15 -2 0
9 13 0
-14 7 0
14 3 0
