c PROBLEM_015_100_11  vars=15  clausulas=100  k=2
p cnf 15 100
-8 10 0
6 -2 0
-4 3 0
-6 -3 0
-7 3 0
3 -11 0
-4 6 0
4 6 0
4 -1 0
-13 -15 0
-12 7 0
3 -9 0
-8 -13 0
-10 -6 0
-10 -6 0
3 11 0
9 -6 0
-2 -10 0
-6 -4 0
-10 -7 0
15 -12 0
13 7 0
-3 -12 0
-6 5 0
-10 4 0
7 -3 0
-1 11 0
8 -13 0
5 6 0
-13 12 0
3 -9 0
15 -5 0
14 -15 0
12 -13 0
-14 11 0
8 4 0
-13 -5 0
-13 3 0
3 -4 0
7 15 0
4 -12 0
3 -1 0
-15 5 0
14 -4 0
2 -7 0
-10 -13 0
5 -12 0
-13 -4 0
-3 2 0
-13 -6 0
12 10 0
10 -2 0
-3 6 0
-12 -2 0
14 -10 0
-8 -10 0
-14 10 0
-11 -6 0
-10 3 0
-4 -14 0
-9 7 0
13 2 0
5 6 0
-5 11 0
5 -7 0
-6 8 0
-11 -10 0
-13 -3 0
-13 -4 0
-2 13 0
-1 -13 0
-6 14 0
-3 5 0
14 4 0
-6 -15 0
2 1 0
13 14 0
-12 -15 0
-11 -8 0
7 -3 0
9 -10 0
-9 3 0
8 9 0
-11 -3 0
6 -3 0
15 7 0
14 13 0
-15 -9 0
-10 -6 0
-5 7 0
-8 15 0
11 2 0
-14 9 0
5 10 0
-3 4 0
-9 -11 0
-4 2 0
-1 -8 0
5 1 0
7 -15 0
