c PROBLEM_015_100_03  vars=15  clausulas=100  k=2
p cnf 15 100
1 -14 0
8 -11 0
-5 -8 0
4 7 0
-13 -1 0
12 3 0
-2 6 0
-15 -9 0
-15 -8 0
6 3 0
5 -6 0
14 1 0
-1 13 0
-6 -11 0
-10 -13 0
-6 -13 0
-11 -5 0
5 12 0
-14 8 0
11 10 0
-10 -13 0
2 -3 0
-10 -13 0
-14 -6 0
14 -3 0
8 14 0
8 1 0
10 7 0
9 -1 0
-11 3 0
-10 9 0
-6 4 0
-8 -14 0
-13 -8 0
-12 -4 0
-6 9 0
-3 -10 0
4 6 0
12 -15 0
6 13 0
8 -10 0
1 10 0
-5 12 0
-11 -7 0
-5 -11 0
-12 6 0
13 5 0
11 14 0
-15 -9 0
10 -4 0
-12 -9 0
-10 11 0
13 -2 0
-15 1 0
-14 15 0
-2 1 0
-10 -12 0
-3 5 0
9 11 0
-7 -5 0
10 -1 0
2 5 0
-13 -2 0
-3 12 0
13 1 0
-7 -1 0
-11 -2 0
1 -7 0
-14 -9 0
9 8 0
-3 -11 0
-12 11 0
7 14 0
8 2 0
8 -13 0
3 6 0
-7 -2 0
-14 -9 0
-2 15 0
4 5 0
-13 -2 0
-5 14 0
-10 -3 0
12 -4 0
8 -2 0
3 13 0
-9 -5 0
7 13 0
-15 -11 0
10 9 0
-12 -15 0
-11 -15 0
-14 -3 0
9 8 0
6 -2 0
-4 -7 0
-13 -8 0
-2 14 0
-3 -14 0
7 12 0
