c PROBLEM_015_100_48  vars=15  clausulas=100  k=2
p cnf 15 100
-1 -3 0
1 2 0
-12 -8 0
11 -9 0
-2 6 0
-11 -12 0
1 4 0
-8 6 0
-7 5 0
5 -3 0
8 2 0
-2 -6 0
-9 -12 0
13 11 0
-4 -5 0
-15 -3 0
-9 5 0
-12 -5 0
2 -12 0
-3 -1 0
-6 -13 0
3 7 0
10 -3 0
-3 11 0
-4 -6 0
-3 11 0
12 -5 0
1 5 0
-5 15 0
2 -9 0
-8 13 0
9 -10 0
-4 6 0
1 11 0
12 -5 0
5 15 0
-10 8 0
8 -15 0
-8 13 0
15 2 0
-12 -6 0
-12 -5 0
8 -7 0
8 13 0
-1 -4 0
-13 -1 0
-9 -8 0
9 -14 0
5 11 0
-5 -4 0
1 4 0
-12 3 0
-15 14 0
10 -15 0
13 -15 0
8 6 0
-4 13 0
7 -14 0
-4 -10 0
10 13 0
-10 11 0
12 8 0
10 -3 0
5 13 0
-9 -11 0
8 12 0
13 14 0
-11 -3 0
-10 12 0
10 -5 0
6 -2 0
-6 -14 0
-5 -3 0
-14 -8 0
4 -5 0
12 -10 0
1 -6 0
-15 8 0
-12 -10 0
-8 1 0
-1 -3 0
-11 -1 0
-15 14 0
10 15 0
6 -12 0
-4 -12 0
14 4 0
-9 1 0
-4 15 0
-11 -15 0
-13 7 0
-2 -12 0
-9 -2 0
-13 2 0
-11 -3 0
-15 -7 0
13 -6 0
-15 12 0
4 -13 0
6 -9 0
