c PROBLEM_015_100_30  vars=15  clausulas=100  k=2
p cnf 15 100
-14 11 0
12 1 0
4 11 0
-9 11 0
-8 -14 0
-7 14 0
-12 3 0
-6 -8 0
11 -3 0
-1 -15 0
13 -2 0
-3 10 0
8 4 0
-6 10 0
-12 11 0
14 2 0
15 -4 0
15 3 0
13 -2 0
13 7 0
-5 4 0
12 -6 0
-4 15 0
3 7 0
3 -12 0
15 -2 0
-8 15 0
-1 -13 0
7 5 0
4 -13 0
6 -13 0
-5 -3 0
13 -9 0
15 -4 0
-12 6 0
-1 15 0
13 10 0
6 13 0
-12 13 0
2 7 0
3 -15 0
4 -6 0
12 -2 0
10 14 0
-3 15 0
-4 -10 0
-7 12 0
-15 -12 0
-10 9 0
-10 1 0
-1 -14 0
-11 2 0
6 1 0
-13 -10 0
9 -5 0
13 -8 0
-10 -4 0
-15 12 0
-8 11 0
-10 -8 0
8 1 0
-5 -9 0
-7 12 0
-15 -14 0
9 -11 0
-4 -14 0
10 13 0
-5 8 0
-1 7 0
14 9 0
-11 6 0
8 -1 0
5 -15 0
-3 -2 0
-8 3 0
-14 6 0
10 -3 0
13 -12 0
13 7 0
12 13 0
9 6 0
-4 -7 0
-3 -9 0
9 -2 0
13 -6 0
5 14 0
6 9 0
14 8 0
-7 -13 0
8 -15 0
2 13 0
-12 -15 0
13 7 0
-13 3 0
-4 6 0
-12 -11 0
-10 5 0
-2 15 0
11 -5 0
2 -1 0
