c PROBLEM_015_100_07  vars=15  clausulas=100  k=2
p cnf 15 100
6 12 0
15 11 0
-14 5 0
-12 -6 0
10 -9 0
5 -1 0
-4 1 0
11 15 0
-5 -14 0
-6 4 0
-6 -5 0
-2 8 0
-12 13 0
-8 6 0
-9 -1 0
-6 10 0
-4 8 0
14 -1 0
-12 -13 0
9 -6 0
-11 -9 0
7 14 0
-8 -12 0
14 -7 0
9 -7 0
11 -14 0
-1 15 0
15 -14 0
14 -1 0
-9 -8 0
-13 5 0
-15 3 0
4 -10 0
-5 6 0
-1 5 0
-4 11 0
-9 -13 0
5 9 0
-10 11 0
-2 -9 0
2 -7 0
14 -15 0
-15 -7 0
-4 5 0
-4 12 0
7 3 0
13 -10 0
7 9 0
8 -10 0
-8 -5 0
10 -5 0
15 -2 0
15 5 0
-2 8 0
-14 -11 0
-10 3 0
7 3 0
7 3 0
3 -8 0
-11 5 0
5 -14 0
-14 12 0
10 1 0
1 11 0
-2 -8 0
-3 4 0
11 10 0
-1 10 0
15 6 0
-13 -3 0
10 -3 0
-1 -6 0
-3 13 0
3 -9 0
-15 5 0
10 15 0
-13 -2 0
-6 -13 0
-4 8 0
-11 -14 0
7 12 0
12 -9 0
-1 4 0
-8 7 0
10 8 0
-15 -6 0
6 8 0
-5 -9 0
-3 13 0
4 13 0
3 -5 0
12 -5 0
3 4 0
-6 13 0
4 -2 0
3 9 0
14 2 0
-14 -6 0
5 -13 0
-2 -4 0
