c PROBLEM_015_100_22  vars=15  clausulas=100  k=2
p cnf 15 100
10 2 0
1 12 0
-3 2 0
12 -13 0
-1 11 0
-2 12 0
-7 4 0
9 -15 0
-9 -5 0
2 4 0
-8 -9 0
-7 -15 0
3 -9 0
-1 -2 0
1 -3 0
3 -15 0
-14 9 0
-13 -9 0
-2 -11 0
14 1 0
15 -11 0
11 14 0
8 -6 0
-4 -12 0
-6 -5 0
3 -9 0
8 -14 0
14 -1 0
10 14 0
11 4 0
11 14 0
14 -13 0
-8 -12 0
3 -10 0
-13 -12 0
13 15 0
-3 8 0
15 13 0
2 4 0
-9 10 0
-8 2 0
7 14 0
-11 14 0
-12 -9 0
-13 9 0
-2 1 0
-15 4 0
6 -4 0
13 14 0
-9 -5 0
2 8 0
-9 -1 0
-15 -3 0
-11 -3 0
-14 -3 0
-5 7 0
9 8 0
1 -7 0
-8 2 0
-3 7 0
7 12 0
13 -15 0
-13 -8 0
-13 -5 0
15 -7 0
10 -14 0
1 -6 0
-1 -15 0
14 4 0
-12 -11 0
10 -8 0
13 -6 0
4 9 0
-6 -13 0
-3 7 0
-14 7 0
7 -1 0
1 14 0
4 -6 0
12 8 0
10 -15 0
6 4 0
9 -11 0
6 -5 0
-13 -14 0
-5 -4 0
6 -7 0
-10 15 0
-6 -8 0
-7 15 0
3 -9 0
-8 -14 0
5 11 0
-11 -5 0
2 13 0
-10 4 0
-8 -1 0
13 -6 0
-14 -15 0
-1 -4 0
