c PROBLEM_015_100_31  vars=15  clausulas=100  k=2
p cnf 15 100
-10 2 0
-4 1 0
-14 -9 0
-13 9 0
-15 6 0
1 -7 0
-4 -9 0
-2 1 0
-9 8 0
12 2 0
6 -2 0
9 10 0
9 2 0
-8 -14 0
1 10 0
2 11 0
-11 -5 0
-6 14 0
-11 12 0
6 -11 0
2 8 0
5 -9 0
-4 -7 0
12 -13 0
1 11 0
-15 -4 0
12 13 0
2 6 0
10 14 0
15 -9 0
-6 -13 0
-1 -11 0
11 -10 0
5 1 0
11 8 0
11 -4 0
9 -14 0
-11 -15 0
-7 -5 0
-8 5 0
4 13 0
-15 8 0
-15 1 0
-7 -9 0
14 -10 0
5 4 0
-2 10 0
-13 -6 0
7 -15 0
-8 2 0
-3 15 0
-7 -12 0
-11 -10 0
-12 5 0
-5 -1 0
-1 3 0
-8 14 0
-3 14 0
11 -4 0
-10 12 0
-8 12 0
9 12 0
9 -10 0
-14 8 0
-5 15 0
7 11 0
1 10 0
12 -3 0
-12 -14 0
-14 1 0
15 7 0
-1 13 0
8 1 0
15 -7 0
-12 14 0
15 6 0
9 -5 0
-1 -6 0
-2 6 0
7 3 0
-2 -15 0
-2 8 0
-9 -10 0
-1 2 0
-12 -14 0
6 -2 0
-11 -7 0
-15 9 0
5 -1 0
2 1 0
7 -15 0
-2 1 0
-12 15 0
-7 4 0
12 11 0
4 -5 0
3 -4 0
-8 1 0
-1 9 0
-4 15 0
