c PROBLEM_015_100_34  vars=15  clausulas=100  k=2
p cnf 15 100
-9 -1 0
6 11 0
5 -14 0
4 -15 0
13 4 0
-8 -6 0
-9 5 0
-1 -5 0
-1 4 0
13 7 0
15 3 0
3 11 0
-13 -11 0
-5 -6 0
-9 13 0
-6 10 0
-8 9 0
-11 6 0
-9 -15 0
10 1 0
12 -10 0
-6 11 0
5 -13 0
-15 -5 0
11 -7 0
6 -12 0
-9 -10 0
-11 -13 0
-12 9 0
-7 3 0
4 -14 0
-5 -3 0
7 -15 0
-15 8 0
-10 -13 0
-7 4 0
14 -8 0
8 -12 0
15 11 0
1 3 0
-15 -7 0
-7 8 0
-13 -7 0
-14 -4 0
-12 -3 0
-6 1 0
-1 14 0
4 13 0
3 -13 0
-14 -11 0
-13 -2 0
-3 14 0
-7 -8 0
-14 -15 0
11 -9 0
5 4 0
12 7 0
-9 -1 0
6 -5 0
7 -2 0
7 6 0
-4 8 0
-5 10 0
2 -6 0
-14 1 0
5 15 0
-5 -14 0
15 5 0
-5 12 0
5 1 0
4 -7 0
11 6 0
-13 -5 0
-14 -3 0
6 2 0
-4 14 0
-1 6 0
1 6 0
4 -14 0
10 2 0
-3 4 0
12 10 0
-1 -13 0
13 12 0
13 12 0
-9 11 0
-14 -10 0
-10 -3 0
-3 -11 0
-5 2 0
11 14 0
-5 4 0
-11 10 0
-15 -8 0
-6 4 0
9 -8 0
-12 -3 0
4 -14 0
13 -4 0
6 4 0
