c PROBLEM_015_100_33  vars=15  clausulas=100  k=2
p cnf 15 100
7 -1 0
-11 7 0
-14 13 0
6 -7 0
-12 -4 0
1 -15 0
8 6 0
2 -1 0
4 2 0
1 15 0
2 14 0
-15 10 0
-3 12 0
8 12 0
-6 2 0
5 10 0
3 -7 0
-12 8 0
-8 2 0
2 10 0
-7 13 0
12 -11 0
-8 14 0
-1 -11 0
-13 12 0
-7 -8 0
4 13 0
9 1 0
9 8 0
7 -2 0
11 5 0
-8 -14 0
12 7 0
12 7 0
13 -10 0
-4 8 0
4 2 0
-15 1 0
6 -1 0
-12 -5 0
7 -11 0
7 8 0
-12 -1 0
-13 3 0
9 12 0
-11 8 0
-11 -6 0
2 -13 0
5 15 0
-12 -13 0
3 10 0
-6 5 0
13 15 0
-2 7 0
-2 11 0
5 -15 0
11 1 0
-14 9 0
7 4 0
-12 9 0
-6 1 0
-1 -15 0
-4 8 0
-15 -3 0
10 -15 0
-15 14 0
12 3 0
-7 4 0
-12 14 0
-4 12 0
3 15 0
-1 5 0
1 -5 0
-9 5 0
13 11 0
12 2 0
-9 14 0
-14 -15 0
-8 10 0
5 6 0
11 12 0
2 -7 0
-6 -13 0
-12 -2 0
-15 13 0
-11 15 0
-8 6 0
14 15 0
2 7 0
6 10 0
15 10 0
11 -2 0
-1 -12 0
-10 8 0
-14 12 0
15 -3 0
10 -12 0
13 15 0
-2 -11 0
-11 -13 0
