c PROBLEM_015_100_01  vars=15  clausulas=100  k=2
p cnf 15 100
2 14 0
-14 9 0
15 12 0
-11 12 0
-6 -11 0
5 -3 0
-1 -12 0
-13 1 0
1 9 0
-6 15 0
7 -11 0
-4 -3 0
3 -1 0
-8 4 0
-14 7 0
15 -8 0
2 8 0
-11 -14 0
5 2 0
-5 14 0
8 -5 0
14 -1 0
-6 13 0
13 -6 0
-5 2 0
-12 8 0
-13 -1 0
8 -5 0
-9 4 0
-9 -3 0
-2 11 0
-15 9 0
10 1 0
14 15 0
-9 7 0
14 10 0
-4 -5 0
-1 10 0
6 8 0
7 -12 0
-5 -14 0
4 -12 0
11 1 0
-12 -11 0
10 2 0
-6 -8 0
-4 3 0
-4 -6 0
-4 -1 0
2 -9 0
-6 3 0
4 6 0
-3 2 0
9 -8 0
13 -9 0
4 -14 0
3 -13 0
15 -13 0
14 5 0
-13 10 0
11 6 0
2 5 0
-14 6 0
4 3 0
-9 -12 0
-1 -5 0
2 13 0
-8 -5 0
1 6 0
5 -9 0
-7 -9 0
-6 14 0
5 -12 0
-3 2 0
12 -3 0
4 6 0
14 -2 0
6 3 0
5 -3 0
4 10 0
5 -15 0
-8 -1 0
-2 -15 0
11 3 0
15 -8 0
7 8 0
-13 7 0
8 7 0
-12 -14 0
1 -5 0
-8 -10 0
3 -8 0
5 2 0
-8 -9 0
-7 -13 0
2 -8 0
6 -8 0
3 14 0
2 3 0
3 1 0
