c PROBLEM_015_100_24  vars=15  clausulas=100  k=2
p cnf 15 100
-5 10 0
12 -10 0
-13 -7 0
3 4 0
12 15 0
15 -13 0
-6 7 0
-4 3 0
6 -7 0
-7 -5 0
10 11 0
-6 14 0
10 -2 0
-6 -7 0
-1 15 0
-14 -6 0
-8 -13 0
-10 -4 0
-8 -14 0
-15 6 0
8 5 0
-6 3 0
12 -2 0
-14 4 0
6 -11 0
-4 13 0
12 8 0
5 -15 0
4 15 0
2 4 0
2 -6 0
8 -11 0
-8 -5 0
8 -3 0
-8 14 0
7 3 0
-7 8 0
10 -14 0
-12 -11 0
5 -11 0
-11 13 0
14 12 0
-10 7 0
-6 12 0
-11 1 0
-12 9 0
11 7 0
-6 10 0
2 13 0
-3 6 0
1 -10 0
9 -7 0
-7 8 0
-15 3 0
2 9 0
8 -2 0
-13 -10 0
-3 5 0
-13 1 0
-12 -11 0
-14 5 0
-2 6 0
8 -6 0
-10 9 0
-12 -3 0
7 5 0
-8 4 0
9 -7 0
-5 -15 0
-13 14 0
-5 -12 0
-3 7 0
-6 -5 0
-6 7 0
-11 2 0
-6 -15 0
10 -9 0
9 14 0
-6 12 0
14 6 0
7 2 0
13 -5 0
12 -4 0
-10 3 0
2 -14 0
-6 -10 0
-13 -6 0
7 -10 0
-6 14 0
9 3 0
6 9 0
-15 -13 0
2 -8 0
4 -14 0
1 -4 0
-15 -13 0
-8 1 0
5 -12 0
14 -4 0
-15 -3 0
