c PROBLEM_015_100_04  vars=15  clausulas=100  k=2
p cnf 15 100
-15 -4 0
8 2 0
9 -5 0
-14 -11 0
7 15 0
-1 5 0
8 -7 0
-4 10 0
-6 10 0
14 -7 0
-10 14 0
-3 -14 0
-8 12 0
8 7 0
-14 9 0
7 -5 0
-12 10 0
-10 -5 0
5 -10 0
4 5 0
6 -12 0
-1 -6 0
-10 5 0
10 -8 0
-7 -2 0
-2 -1 0
5 12 0
5 -6 0
-8 3 0
8 -15 0
-5 -7 0
13 7 0
13 1 0
6 -7 0
7 -10 0
3 2 0
-5 -4 0
-3 12 0
-5 12 0
-15 -6 0
-12 8 0
-9 13 0
-5 -1 0
5 -14 0
2 -12 0
15 13 0
-11 12 0
8 10 0
-7 -11 0
-15 12 0
-13 10 0
-4 -1 0
-3 -4 0
13 14 0
5 -14 0
2 8 0
10 -14 0
1 -15 0
1 11 0
12 9 0
6 -5 0
6 -12 0
1 -5 0
-4 -6 0
-10 8 0
12 6 0
-4 6 0
9 2 0
10 -2 0
-5 -10 0
1 14 0
-4 -10 0
-9 -14 0
-2 9 0
1 14 0
-5 -2 0
6 -2 0
5 -10 0
-6 11 0
8 -4 0
-10 2 0
-4 5 0
5 -13 0
1 -2 0
-11 7 0
13 -3 0
-6 -11 0
1 11 0
11 -3 0
4 8 0
-13 2 0
-13 -11 0
-7 9 0
-4 -2 0
-1 6 0
-3 -11 0
2 8 0
-5 3 0
-12 -3 0
-9 1 0
