c PROBLEM_020_060_12  vars=20  clausulas=60  k=2
p cnf 20 60
5 -8 0
7 -1 0
-12 5 0
-16 -13 0
-7 -8 0
-17 18 0
-4 -17 0
-16 -12 0
-1 -6 0
-19 10 0
-4 9 0
-19 1 0
-20 -15 0
-16 -18 0
-2 1 0
-10 -17 0
-11 -20 0
15 -17 0
-8 2 0
-10 17 0
-10 -7 0
16 10 0
20 -11 0
6 -5 0
14 -1 0
19 -5 0
-9 -11 0
-5 15 0
8 14 0
1 -11 0
-17 -7 0
2 6 0
12 -14 0
-13 2 0
-16 19 0
7 5 0
14 -3 0
4 5 0
-8 12 0
-7 2 0
-19 -6 0
12 15 0
17 8 0
-11 13 0
16 1 0
-9 5 0
3 2 0
-4 12 0
13 -18 0
-2 -14 0
-9 -3 0
-15 -9 0
-7 -19 0
8 -17 0
-18 -8 0
19 -14 0
7 12 0
1 18 0
-20 7 0
-13 -11 0
