c PROBLEM_020_060_22  vars=20  clausulas=60  k=2
p cnf 20 60
19 16 0
5 -20 0
20 8 0
-11 -19 0
11 -5 0
-14 -3 0
-16 -3 0
7 -11 0
-10 -16 0
20 19 0
18 17 0
10 -8 0
8 -16 0
2 -4 0
16 -19 0
6 16 0
2 -14 0
-14 1 0
14 -2 0
6 -18 0
8 -5 0
-11 -18 0
-15 -14 0
-5 -15 0
17 7 0
-4 -10 0
-14 -7 0
-6 -12 0
-12 19 0
10 16 0
-16 -3 0
-5 20 0
11 -20 0
-12 -6 0
-3 1 0
17 -19 0
-17 -16 0
2 -15 0
-1 8 0
-9 19 0
1 -14 0
-14 -9 0
-11 12 0
8 -13 0
-19 16 0
-13 -2 0
-7 18 0
-9 10 0
-15 10 0
4 -6 0
-5 -10 0
12 3 0
10 -18 0
-10 6 0
-20 -11 0
9 -4 0
2 9 0
-11 -3 0
10 16 0
13 -12 0
