c PROBLEM_020_060_23  vars=20  clausulas=60  k=2
p cnf 20 60
6 -1 0
7 -9 0
10 12 0
-3 1 0
4 6 0
18 6 0
5 7 0
13 -4 0
-16 -11 0
-11 7 0
12 -13 0
15 -6 0
8 -15 0
17 -18 0
-11 8 0
-11 -4 0
3 -5 0
16 10 0
-11 -16 0
8 11 0
16 19 0
-12 15 0
19 11 0
-14 -7 0
12 5 0
-18 6 0
18 3 0
10 4 0
20 -13 0
-1 17 0
-12 13 0
-3 -8 0
-18 16 0
9 -14 0
-17 -7 0
16 13 0
-5 -10 0
20 -6 0
-4 20 0
-6 18 0
-12 8 0
-1 -18 0
-8 -3 0
8 12 0
18 -12 0
-2 -19 0
8 13 0
17 -20 0
17 -10 0
19 10 0
-7 -13 0
-12 2 0
-14 18 0
7 2 0
-16 -3 0
17 -8 0
-14 18 0
8 5 0
2 18 0
-6 12 0
