c PROBLEM_020_060_46  vars=20  clausulas=60  k=2
p cnf 20 60
-1 -3 0
-4 2 0
13 -20 0
10 -12 0
15 5 0
4 -6 0
-20 -10 0
-17 15 0
-15 3 0
-16 7 0
13 -16 0
16 4 0
-9 -5 0
-19 16 0
20 -2 0
15 4 0
-17 -18 0
-14 9 0
15 3 0
-17 20 0
-17 15 0
-12 -14 0
20 13 0
-1 11 0
3 -5 0
4 2 0
-9 -6 0
-11 20 0
-8 -7 0
-5 13 0
-20 9 0
-12 8 0
-13 15 0
-17 -13 0
14 -15 0
4 12 0
-12 -13 0
-2 -10 0
16 20 0
-3 -10 0
-18 -10 0
-14 17 0
-2 18 0
-4 3 0
7 2 0
3 19 0
7 -10 0
7 2 0
9 4 0
-10 2 0
-15 -2 0
1 -3 0
7 8 0
7 -3 0
9 -5 0
10 12 0
20 14 0
18 -11 0
14 -12 0
11 -12 0
