c PROBLEM_020_060_42  vars=20  clausulas=60  k=2
p cnf 20 60
20 17 0
-6 4 0
11 -5 0
8 -20 0
-14 -5 0
13 -9 0
-3 4 0
-6 19 0
-19 8 0
-13 -7 0
11 -6 0
5 -7 0
-9 16 0
19 4 0
17 14 0
4 -12 0
2 9 0
12 1 0
-17 2 0
4 9 0
-3 -5 0
-16 -2 0
14 -19 0
-1 4 0
3 17 0
11 -1 0
-3 -13 0
2 -10 0
-19 2 0
18 -11 0
-7 -14 0
-18 -12 0
1 -3 0
5 -12 0
-13 -16 0
-7 18 0
-18 17 0
19 -8 0
12 -8 0
6 16 0
-11 12 0
-4 15 0
-14 5 0
15 -5 0
20 18 0
9 -2 0
13 -14 0
-11 -19 0
2 16 0
8 18 0
13 19 0
-3 6 0
-16 19 0
16 9 0
4 7 0
-2 1 0
-15 8 0
8 10 0
-14 -5 0
14 5 0
