c PROBLEM_020_060_05  vars=20  clausulas=60  k=2
p cnf 20 60
19 -8 0
-18 -10 0
7 12 0
-4 -6 0
16 -10 0
-2 12 0
13 -20 0
-1 -10 0
5 12 0
-1 8 0
8 -3 0
9 5 0
13 1 0
-10 -16 0
7 -18 0
-19 -12 0
6 -5 0
-5 -4 0
-20 2 0
-3 -10 0
-2 13 0
1 -13 0
7 -9 0
8 -15 0
-19 11 0
12 -18 0
15 12 0
7 -4 0
-10 -5 0
16 -17 0
-5 11 0
-10 -18 0
-15 18 0
1 -13 0
-13 6 0
17 8 0
-11 -2 0
-17 9 0
2 -3 0
-6 -18 0
-1 -2 0
11 12 0
7 -15 0
4 11 0
11 -9 0
2 17 0
2 15 0
4 5 0
5 1 0
-4 -14 0
-18 -2 0
8 20 0
19 13 0
17 13 0
19 -13 0
19 -17 0
11 3 0
14 -16 0
10 13 0
-17 -10 0
