c PROBLEM_020_060_35  vars=20  clausulas=60  k=2
p cnf 20 60
-13 -11 0
3 -11 0
-6 -4 0
12 14 0
-8 -10 0
-15 10 0
14 5 0
3 7 0
-3 1 0
5 -17 0
-5 -3 0
-2 -16 0
-7 15 0
16 -15 0
1 11 0
3 -5 0
1 -7 0
-12 -3 0
-2 -19 0
-7 -16 0
-15 1 0
-1 -11 0
-15 9 0
-17 8 0
16 17 0
17 13 0
-7 -2 0
9 5 0
6 3 0
2 -14 0
-9 -18 0
-17 -1 0
8 -5 0
15 8 0
18 20 0
-16 8 0
3 20 0
-11 -13 0
-5 -15 0
15 -3 0
14 6 0
9 8 0
14 2 0
18 11 0
7 -20 0
20 19 0
8 -15 0
-2 -5 0
-7 4 0
-20 16 0
-11 -2 0
-8 9 0
-5 13 0
10 18 0
20 17 0
-13 14 0
-6 8 0
-10 -9 0
14 -11 0
1 10 0
