c PROBLEM_020_060_38  vars=20  clausulas=60  k=2
p cnf 20 60
6 -15 0
10 2 0
11 18 0
-4 5 0
-14 -3 0
6 -3 0
-19 17 0
-7 17 0
-2 7 0
-15 -2 0
-13 15 0
11 6 0
-20 -5 0
-7 -17 0
19 -13 0
-18 -5 0
-3 -5 0
16 -6 0
-2 8 0
11 -20 0
-2 -4 0
2 20 0
-15 20 0
1 -20 0
11 14 0
-18 15 0
20 5 0
-3 -10 0
19 -11 0
9 -20 0
-18 17 0
11 16 0
15 1 0
12 19 0
-19 17 0
-19 7 0
-15 2 0
-17 -14 0
2 -10 0
-18 14 0
8 1 0
-8 12 0
18 16 0
3 -16 0
-16 -12 0
-6 -17 0
5 8 0
-20 5 0
-15 5 0
-1 -9 0
9 7 0
-4 13 0
5 -13 0
16 13 0
17 -18 0
-14 15 0
6 4 0
2 -4 0
-3 -14 0
5 9 0
