c PROBLEM_020_060_39  vars=20  clausulas=60  k=2
p cnf 20 60
7 12 0
11 -19 0
-16 -14 0
3 6 0
-17 -14 0
12 17 0
-10 -20 0
-7 -8 0
-9 7 0
1 16 0
-11 -9 0
16 19 0
19 -15 0
16 -5 0
-20 -7 0
14 7 0
-6 19 0
12 -15 0
-19 -12 0
-18 -7 0
-8 -9 0
12 -15 0
4 -6 0
5 13 0
12 4 0
-14 -11 0
-20 4 0
14 16 0
-17 -10 0
-7 -4 0
-17 15 0
12 -15 0
-5 -10 0
-14 8 0
-10 4 0
2 -5 0
18 14 0
-11 16 0
15 9 0
-4 11 0
11 5 0
6 -4 0
-5 -8 0
-12 8 0
13 -20 0
-20 8 0
6 -18 0
18 2 0
3 -2 0
16 -11 0
-9 -12 0
11 14 0
-12 6 0
3 4 0
3 -15 0
-13 10 0
19 17 0
-1 18 0
15 6 0
-10 -1 0
