c PROBLEM_020_060_14  vars=20  clausulas=60  k=2
p cnf 20 60
-20 14 0
-17 20 0
14 2 0
20 -2 0
-18 19 0
-7 20 0
-3 -17 0
-13 -5 0
8 3 0
-10 -3 0
19 -20 0
-6 -9 0
-6 -17 0
4 19 0
-19 4 0
15 -2 0
-18 11 0
12 -14 0
20 16 0
-17 1 0
4 14 0
12 -16 0
-7 -10 0
19 -6 0
-7 12 0
8 16 0
20 1 0
18 13 0
6 12 0
9 20 0
2 -6 0
15 19 0
10 -3 0
-2 1 0
4 -18 0
-18 12 0
-11 -14 0
12 -9 0
6 19 0
7 -8 0
12 6 0
-12 -17 0
-7 14 0
-20 -3 0
-8 -15 0
5 7 0
16 15 0
-3 -6 0
-4 -5 0
-9 -11 0
2 11 0
6 4 0
-20 -1 0
13 7 0
17 1 0
14 -20 0
-13 -18 0
-10 2 0
-8 -3 0
13 8 0
