c PROBLEM_020_060_08  vars=20  clausulas=60  k=2
p cnf 20 60
16 5 0
10 19 0
3 -20 0
-11 15 0
13 4 0
-20 -7 0
16 -18 0
19 -14 0
-18 6 0
-6 12 0
-7 12 0
-4 2 0
-14 8 0
-19 3 0
-14 13 0
16 -19 0
-9 17 0
-9 -2 0
16 -1 0
15 -12 0
10 -18 0
12 9 0
-18 16 0
6 -16 0
-14 -2 0
-14 12 0
2 -18 0
-19 14 0
-18 13 0
-14 7 0
-4 -3 0
17 19 0
16 -14 0
-9 -17 0
15 9 0
5 11 0
-11 -14 0
13 -4 0
-15 -17 0
7 1 0
18 -1 0
-4 5 0
-10 -16 0
-19 -9 0
-9 8 0
-15 -14 0
-10 2 0
-6 -11 0
-8 15 0
-3 12 0
6 11 0
-12 13 0
9 -14 0
7 5 0
-8 1 0
7 10 0
-11 -10 0
5 -7 0
10 -14 0
19 1 0
