c PROBLEM_020_060_16  vars=20  clausulas=60  k=2
p cnf 20 60
-16 -9 0
6 18 0
-16 19 0
7 6 0
13 -1 0
-18 -1 0
-1 -12 0
-11 -14 0
-9 -10 0
7 19 0
-13 3 0
-10 17 0
2 18 0
-7 -20 0
-20 -15 0
7 -14 0
10 -6 0
6 -8 0
15 -16 0
-13 10 0
5 20 0
17 20 0
13 -5 0
-7 -15 0
-2 7 0
-13 -6 0
-17 -1 0
-19 -11 0
-3 6 0
8 11 0
6 19 0
-18 2 0
-11 -6 0
19 -2 0
13 16 0
3 -13 0
13 -7 0
2 -16 0
14 -12 0
4 14 0
6 15 0
-14 3 0
-15 2 0
-19 -8 0
14 13 0
-7 15 0
11 2 0
16 8 0
20 -2 0
10 18 0
-5 3 0
-17 1 0
9 18 0
-14 -5 0
3 5 0
-7 20 0
1 -6 0
-12 -5 0
2 17 0
4 -20 0
