c PROBLEM_020_060_17  vars=20  clausulas=60  k=2
p cnf 20 60
-14 20 0
14 -4 0
13 -17 0
-14 -7 0
-16 12 0
20 15 0
7 -11 0
7 -16 0
-15 -1 0
7 5 0
-3 -2 0
-9 -4 0
7 -18 0
-17 -19 0
9 19 0
-12 1 0
14 8 0
20 -8 0
8 -10 0
1 7 0
10 -16 0
2 13 0
19 -15 0
9 19 0
-14 -11 0
2 13 0
12 -20 0
-12 -15 0
-10 11 0
-9 13 0
13 19 0
-3 12 0
-8 -4 0
-1 6 0
12 8 0
16 -18 0
-18 -4 0
-10 -8 0
-19 -5 0
15 10 0
15 -11 0
-4 7 0
1 -19 0
13 -20 0
-15 18 0
-20 1 0
6 2 0
17 -15 0
5 -17 0
7 -4 0
-1 -2 0
1 15 0
7 17 0
-9 -1 0
-17 -18 0
18 19 0
-7 -19 0
-9 -14 0
-10 -9 0
5 -6 0
