c PROBLEM_020_060_32  vars=20  clausulas=60  k=2
p cnf 20 60
6 -18 0
-15 -5 0
-10 -15 0
18 -15 0
9 -15 0
3 -19 0
6 11 0
-12 13 0
2 18 0
8 -17 0
17 -2 0
13 9 0
11 -5 0
8 15 0
12 4 0
-18 6 0
-14 -9 0
12 8 0
1 15 0
-19 18 0
18 -10 0
12 7 0
7 8 0
5 -12 0
11 -13 0
7 18 0
-18 8 0
17 19 0
-14 10 0
-5 -16 0
-6 -15 0
-20 -14 0
11 -2 0
6 13 0
-15 2 0
-7 -9 0
8 10 0
-18 4 0
6 18 0
10 -5 0
6 -11 0
20 2 0
2 11 0
7 2 0
5 1 0
5 -17 0
6 17 0
-1 13 0
-10 18 0
-7 -18 0
13 -16 0
-19 4 0
-3 13 0
5 -4 0
-14 10 0
19 3 0
9 -10 0
-11 -20 0
7 16 0
13 18 0
