c PROBLEM_020_060_47  vars=20  clausulas=60  k=2
p cnf 20 60
-2 -14 0
-18 16 0
1 -2 0
6 -7 0
-9 -19 0
18 -6 0
-5 10 0
14 9 0
-7 -5 0
-20 8 0
-10 14 0
13 12 0
-18 -19 0
-7 8 0
20 12 0
10 -7 0
-13 4 0
-20 3 0
15 11 0
-3 15 0
-20 -6 0
-13 14 0
15 -4 0
10 2 0
11 -5 0
-15 -4 0
-7 14 0
7 14 0
-4 -14 0
3 -13 0
12 6 0
6 14 0
-4 16 0
2 20 0
-18 4 0
-5 -9 0
5 3 0
11 10 0
-12 -20 0
-4 -18 0
16 -17 0
7 -11 0
-1 14 0
-3 17 0
12 -5 0
-12 -15 0
-19 1 0
12 -4 0
-19 9 0
-2 -9 0
6 -8 0
16 1 0
-1 6 0
-16 -19 0
18 -6 0
2 12 0
-14 5 0
-15 14 0
-18 5 0
2 11 0
