c PROBLEM_020_060_34  vars=20  clausulas=60  k=2
p cnf 20 60
-1 -15 0
2 -14 0
13 -8 0
1 3 0
9 15 0
-20 19 0
-8 3 0
-7 6 0
5 18 0
11 -18 0
5 19 0
1 -4 0
-1 -18 0
7 1 0
-1 5 0
14 -19 0
18 12 0
7 -20 0
-15 13 0
-10 -2 0
-8 -9 0
-3 -9 0
20 -11 0
2 15 0
-7 13 0
-4 17 0
-9 -19 0
-15 6 0
3 -12 0
-14 -9 0
13 -1 0
8 12 0
-16 19 0
13 -18 0
19 -17 0
-12 -4 0
-17 12 0
9 -8 0
-9 -20 0
12 -6 0
1 -17 0
-3 -19 0
19 12 0
12 -4 0
-16 -1 0
-10 -14 0
-14 -7 0
-20 13 0
1 4 0
-13 -20 0
3 15 0
11 9 0
-18 6 0
-8 -3 0
-6 -11 0
18 13 0
11 -4 0
-16 4 0
-20 9 0
12 -8 0
