c PROBLEM_040_050_26  vars=40  clausulas=50  k=2
p cnf 40 50
23 28 0
16 15 0
24 -13 0
-29 6 0
-25 12 0
24 -39 0
-3 37 0
-9 -30 0
-19 30 0
39 -33 0
2 -23 0
-1 -40 0
-20 30 0
-33 -25 0
-11 -27 0
-39 30 0
30 -37 0
-32 19 0
9 31 0
-19 -34 0
27 32 0
35 10 0
2 -26 0
25 -12 0
-13 -37 0
3 10 0
-27 18 0
-38 -20 0
22 -13 0
-33 -25 0
37 14 0
-22 -24 0
28 -36 0
-24 23 0
29 13 0
-21 28 0
-16 35 0
-22 8 0
-27 17 0
-5 -9 0
5 -17 0
-20 3 0
27 -15 0
-7 26 0
34 -4 0
-18 -21 0
-34 -9 0
-8 -27 0
24 -14 0
-19 -32 0
