c PROBLEM_060_070_34  vars=60  clausulas=70  k=2
p cnf 60 70
5 8 0
-39 -59 0
-50 26 0
-1 -34 0
30 52 0
43 37 0
6 29 0
52 41 0
17 9 0
-10 45 0
-7 54 0
17 -16 0
25 20 0
36 9 0
21 42 0
-5 -34 0
37 -31 0
32 -18 0
-21 -44 0
-17 -4 0
17 -1 0
41 56 0
23 -41 0
46 -40 0
-35 58 0
-52 33 0
11 32 0
-53 -49 0
-32 42 0
33 60 0
-33 -11 0
3 -60 0
14 -22 0
36 4 0
-23 24 0
49 54 0
15 -19 0
4 -22 0
-47 -2 0
52 10 0
2 5 0
43 -60 0
-55 -8 0
-51 -56 0
-41 17 0
43 10 0
-3 59 0
-45 -58 0
-28 -27 0
20 22 0
36 -46 0
25 -39 0
-12 14 0
42 -5 0
48 -58 0
-40 19 0
19 -55 0
9 10 0
-55 -3 0
40 -12 0
-38 -48 0
18 27 0
-33 -46 0
57 13 0
-53 -37 0
53 -18 0
22 -28 0
-52 28 0
44 -42 0
52 -20 0
