c PROBLEM_060_070_07  vars=60  clausulas=70  k=2
p cnf 60 70
-42 -25 0
56 48 0
21 25 0
46 11 0
53 -31 0
16 56 0
2 -23 0
-3 -14 0
32 14 0
43 -51 0
-50 -20 0
7 49 0
-19 -28 0
-54 -43 0
-21 15 0
13 7 0
-12 -40 0
-7 38 0
-39 -13 0
55 58 0
20 2 0
-4 -3 0
28 37 0
-8 32 0
-32 -35 0
39 -53 0
-23 44 0
-29 53 0
55 41 0
45 -32 0
-51 -53 0
-47 29 0
38 -58 0
39 -57 0
-17 -24 0
32 54 0
-42 27 0
-9 -32 0
-56 -59 0
51 32 0
17 8 0
18 15 0
43 44 0
14 -41 0
-26 -33 0
-8 -57 0
34 -44 0
-50 23 0
49 -6 0
-43 -23 0
34 -9 0
-33 35 0
56 6 0
4 36 0
-34 -25 0
-10 30 0
59 -31 0
-1 -52 0
19 57 0
53 -30 0
44 34 0
-23 31 0
-59 7 0
60 22 0
-55 -24 0
14 -5 0
21 -2 0
37 -25 0
6 22 0
26 35 0
