c PROBLEM_060_070_35  vars=60  clausulas=70  k=2
p cnf 60 70
-8 37 0
10 57 0
19 -7 0
-38 -5 0
-46 31 0
44 -4 0
39 27 0
-33 20 0
5 -18 0
31 -56 0
39 -23 0
59 60 0
-47 -57 0
9 17 0
58 50 0
4 17 0
-58 -5 0
59 3 0
12 -25 0
-27 37 0
47 -49 0
43 -30 0
58 -2 0
41 16 0
18 26 0
-13 -15 0
-14 30 0
-46 35 0
50 -38 0
-6 -29 0
45 53 0
8 7 0
25 18 0
-16 -43 0
53 -21 0
29 13 0
-38 -39 0
-33 -2 0
60 -28 0
-4 -43 0
-42 31 0
-37 -22 0
-16 -17 0
-36 39 0
-6 -2 0
-42 -38 0
-48 50 0
-6 7 0
14 -58 0
-15 -56 0
-43 -1 0
36 4 0
32 24 0
13 57 0
4 51 0
1 -54 0
-35 59 0
30 -2 0
-51 12 0
-37 49 0
-55 45 0
40 3 0
9 33 0
8 -15 0
-11 -34 0
38 -22 0
1 56 0
-7 -1 0
-52 5 0
-4 -28 0
