c PROBLEM_060_070_21  vars=60  clausulas=70  k=2
p cnf 60 70
-14 58 0
37 -34 0
49 -36 0
-58 -19 0
-59 2 0
34 -27 0
50 13 0
-35 18 0
-37 -8 0
-5 17 0
39 26 0
40 -5 0
-53 46 0
-58 -30 0
-25 34 0
2 -11 0
33 -14 0
40 -17 0
43 44 0
-43 -52 0
-25 30 0
4 41 0
-60 24 0
1 52 0
-52 -56 0
-15 -8 0
-33 38 0
46 -25 0
-56 23 0
44 55 0
14 -32 0
-41 57 0
22 -30 0
-1 6 0
-11 -16 0
-59 -51 0
-6 54 0
-16 51 0
58 -24 0
29 -60 0
7 37 0
-38 14 0
53 49 0
-19 17 0
59 43 0
-47 5 0
-59 -52 0
42 55 0
12 38 0
35 -6 0
-1 -31 0
10 -35 0
6 7 0
-48 -20 0
-21 -59 0
40 8 0
47 -15 0
-27 28 0
37 -5 0
2 -8 0
56 -31 0
22 -28 0
-8 -24 0
19 -43 0
26 -7 0
32 -35 0
25 -40 0
-3 9 0
-1 -45 0
21 -36 0
