c PROBLEM_060_070_48  vars=60  clausulas=70  k=2
p cnf 60 70
-6 52 0
-47 2 0
50 17 0
11 21 0
-57 9 0
-52 -8 0
22 58 0
9 -40 0
14 22 0
-53 46 0
-14 -49 0
-44 53 0
11 48 0
-30 53 0
-13 37 0
55 14 0
24 16 0
-23 -46 0
51 29 0
10 -58 0
-43 10 0
-18 -41 0
9 5 0
-56 -45 0
-31 -18 0
23 52 0
-42 -48 0
57 51 0
-5 -18 0
-22 13 0
14 -1 0
44 -54 0
17 37 0
7 56 0
28 -40 0
21 -47 0
-32 43 0
-15 -22 0
36 30 0
32 27 0
5 -23 0
10 -33 0
39 20 0
-28 4 0
-4 -31 0
22 -29 0
3 5 0
60 7 0
-42 25 0
-13 -50 0
35 56 0
-5 1 0
-31 -4 0
51 33 0
-40 24 0
43 19 0
-12 57 0
18 -45 0
-17 -27 0
-36 49 0
-55 28 0
32 -20 0
-59 41 0
39 50 0
56 27 0
55 -25 0
-13 49 0
-38 34 0
59 -26 0
54 48 0
