c PROBLEM_060_070_26  vars=60  clausulas=70  k=2
p cnf 60 70
-57 28 0
28 40 0
51 -33 0
-59 -35 0
4 25 0
-48 -46 0
60 39 0
-34 1 0
-32 2 0
-8 5 0
4 -26 0
57 51 0
30 -35 0
-6 46 0
3 52 0
-27 19 0
-20 -45 0
-21 -44 0
56 33 0
52 -2 0
18 31 0
-24 53 0
51 24 0
41 15 0
50 55 0
-50 49 0
-23 -36 0
-38 9 0
-47 12 0
50 13 0
31 60 0
4 -10 0
-22 -56 0
37 21 0
26 29 0
35 -7 0
-55 9 0
-59 42 0
-16 1 0
6 -10 0
37 -2 0
19 16 0
3 30 0
-19 -43 0
52 32 0
31 26 0
-11 7 0
40 -22 0
51 24 0
41 -32 0
2 18 0
35 -28 0
4 -19 0
18 3 0
-29 1 0
-20 -45 0
26 -2 0
10 19 0
36 -4 0
-27 -47 0
-5 -54 0
14 -17 0
44 51 0
36 -47 0
-30 23 0
-25 49 0
2 1 0
52 -40 0
58 53 0
-46 -1 0
