c PROBLEM_060_070_24  vars=60  clausulas=70  k=2
p cnf 60 70
-4 14 0
4 37 0
-55 -5 0
-60 47 0
28 36 0
-31 39 0
-11 -48 0
-37 9 0
-24 -14 0
-22 53 0
50 -3 0
22 -6 0
-14 50 0
-25 14 0
13 -15 0
-17 -20 0
-59 -56 0
-40 -35 0
8 -26 0
2 -46 0
40 38 0
1 3 0
-37 -42 0
-60 55 0
57 -51 0
-11 40 0
-2 -41 0
24 -23 0
29 -35 0
-45 -60 0
42 -13 0
19 -12 0
-31 -4 0
-36 8 0
15 30 0
-46 -42 0
-12 -59 0
43 40 0
-39 -7 0
-35 29 0
1 -15 0
21 31 0
-9 40 0
-2 8 0
58 47 0
57 54 0
10 -20 0
-24 -10 0
-46 -23 0
-59 -39 0
49 -19 0
-14 27 0
-23 -37 0
-17 -30 0
-44 18 0
52 -45 0
21 -18 0
51 -21 0
-27 23 0
37 26 0
16 -6 0
2 -50 0
-9 26 0
-33 4 0
34 -58 0
-11 50 0
-45 -12 0
32 31 0
-55 25 0
-56 7 0
