c PROBLEM_060_070_13  vars=60  clausulas=70  k=2
p cnf 60 70
6 -40 0
50 -10 0
29 36 0
-14 -19 0
-24 -41 0
11 47 0
-17 49 0
-20 14 0
-60 8 0
1 -18 0
52 -17 0
57 10 0
-35 -16 0
2 9 0
27 -12 0
-47 -48 0
-54 31 0
58 21 0
6 60 0
10 59 0
-38 -57 0
-35 23 0
15 -45 0
10 44 0
-3 -28 0
21 -35 0
25 24 0
12 25 0
28 -7 0
53 -17 0
-25 39 0
-57 -42 0
-50 55 0
-53 -46 0
-26 -45 0
3 -60 0
-56 -5 0
-7 9 0
-21 -48 0
-49 -51 0
-22 46 0
-14 43 0
-29 -37 0
-37 -36 0
-30 40 0
31 26 0
-20 34 0
41 36 0
35 -51 0
45 -16 0
58 -51 0
4 -32 0
52 23 0
-19 -56 0
13 -39 0
41 26 0
-15 18 0
-44 20 0
58 -33 0
-17 2 0
59 28 0
-57 24 0
-14 -56 0
-33 20 0
-36 38 0
37 -23 0
55 24 0
-17 42 0
48 54 0
22 56 0
