c PROBLEM_060_070_32  vars=60  clausulas=70  k=2
p cnf 60 70
-46 8 0
-19 9 0
-60 -52 0
-57 34 0
15 -51 0
57 -22 0
5 25 0
54 -18 0
23 10 0
22 -15 0
29 56 0
45 40 0
28 39 0
-49 -16 0
12 -26 0
30 47 0
-8 53 0
13 -58 0
37 -41 0
56 26 0
-10 7 0
55 45 0
36 -56 0
-21 -43 0
-29 -26 0
18 -32 0
41 -50 0
-2 -51 0
46 16 0
9 51 0
6 -19 0
-29 -6 0
-59 48 0
-34 19 0
33 10 0
-45 -42 0
-47 59 0
-28 -8 0
-17 -12 0
44 -27 0
-20 31 0
3 -44 0
10 -46 0
-38 -47 0
-14 43 0
54 4 0
-29 -25 0
31 13 0
9 -19 0
46 36 0
-39 -1 0
-25 11 0
30 -6 0
53 -42 0
20 46 0
-35 59 0
6 -29 0
11 53 0
-3 38 0
-23 43 0
53 50 0
-42 29 0
-52 -55 0
-39 -14 0
-19 50 0
40 50 0
26 44 0
12 -11 0
-14 37 0
7 24 0
