c PROBLEM_060_070_19  vars=60  clausulas=70  k=2
p cnf 60 70
26 13 0
-31 -41 0
-22 -11 0
-58 -40 0
46 36 0
-8 12 0
-60 -38 0
48 31 0
-12 -27 0
46 -7 0
-28 50 0
8 -19 0
58 1 0
57 -46 0
-59 43 0
8 -19 0
-48 33 0
30 -41 0
-5 7 0
-11 -5 0
-6 -25 0
-2 -11 0
-41 -38 0
-58 -12 0
-37 -33 0
-36 -40 0
35 -30 0
-3 14 0
-36 -6 0
48 -37 0
34 29 0
36 -5 0
20 -54 0
23 -51 0
18 17 0
15 47 0
17 -27 0
-44 -36 0
-25 -28 0
56 -42 0
-47 -50 0
2 32 0
35 10 0
7 51 0
-38 -37 0
-9 -52 0
-53 40 0
-4 -40 0
-54 18 0
-58 47 0
-21 -22 0
-26 -50 0
43 -48 0
51 2 0
51 -17 0
-5 22 0
54 -17 0
15 9 0
11 -39 0
59 8 0
24 18 0
-21 -45 0
18 -60 0
-46 38 0
-16 -47 0
-58 -49 0
35 55 0
-14 -6 0
-8 -1 0
-51 20 0
