c PROBLEM_060_070_31  vars=60  clausulas=70  k=2
p cnf 60 70
-21 29 0
27 -49 0
-27 50 0
-53 -2 0
59 58 0
-6 33 0
35 6 0
9 60 0
-54 -53 0
-21 -13 0
-21 34 0
-23 -51 0
44 11 0
-27 41 0
-56 47 0
22 -26 0
13 -32 0
-47 -36 0
-25 19 0
-29 49 0
-18 -21 0
7 -11 0
-42 -36 0
35 44 0
30 38 0
12 -11 0
13 -41 0
7 15 0
-55 5 0
-32 27 0
-58 -1 0
-40 -24 0
-5 -31 0
-6 15 0
-36 42 0
-14 -57 0
-54 3 0
55 -16 0
25 -20 0
52 -24 0
34 -28 0
22 49 0
41 -53 0
2 52 0
-30 37 0
48 16 0
33 44 0
-33 17 0
-39 58 0
41 17 0
-37 -43 0
6 45 0
10 -47 0
-46 -36 0
-18 -23 0
1 -24 0
-2 37 0
-18 -4 0
36 14 0
-42 -12 0
60 3 0
-4 -41 0
-28 -3 0
-56 -2 0
33 -6 0
-21 18 0
24 -56 0
28 59 0
8 -57 0
-31 -45 0
