c PROBLEM_060_070_09  vars=60  clausulas=70  k=2
p cnf 60 70
-14 51 0
-27 -56 0
-5 16 0
17 -18 0
-44 52 0
-37 -41 0
32 -21 0
-43 -25 0
-39 -48 0
55 20 0
-53 45 0
43 1 0
24 -22 0
35 30 0
1 -2 0
-7 10 0
-22 -42 0
-45 37 0
9 15 0
-4 9 0
-58 -35 0
-42 43 0
-29 44 0
13 -18 0
-54 28 0
-51 -55 0
14 -46 0
49 -26 0
19 -14 0
-52 -33 0
31 -3 0
17 -32 0
-50 11 0
14 18 0
21 5 0
15 59 0
-20 4 0
-33 21 0
30 55 0
60 -29 0
-42 -18 0
-43 58 0
40 -57 0
-50 57 0
18 -1 0
-12 -13 0
-26 -28 0
-46 53 0
13 -46 0
-11 10 0
-2 -30 0
-41 -6 0
-16 49 0
6 -60 0
36 -2 0
5 10 0
-45 -2 0
16 24 0
23 -21 0
1 -25 0
-43 14 0
7 52 0
-15 8 0
-7 15 0
-47 31 0
9 -34 0
-40 19 0
-38 44 0
-8 -45 0
44 -24 0
