c PROBLEM_060_070_37  vars=60  clausulas=70  k=2
p cnf 60 70
18 45 0
57 12 0
-23 -51 0
18 -55 0
-5 -58 0
-3 -21 0
46 -29 0
-23 7 0
2 32 0
-30 18 0
-53 8 0
48 -26 0
51 22 0
16 -53 0
36 48 0
57 -47 0
-29 -19 0
42 -60 0
-20 -56 0
-49 4 0
-1 -22 0
30 50 0
-6 -47 0
-2 7 0
-14 24 0
32 9 0
53 -8 0
34 33 0
13 9 0
53 30 0
-48 -43 0
56 60 0
-38 -44 0
-45 57 0
-47 -31 0
-40 9 0
26 54 0
35 2 0
57 49 0
-34 -12 0
-10 -22 0
-37 59 0
-27 -6 0
-16 -19 0
-52 40 0
-60 -5 0
19 -48 0
24 11 0
-25 43 0
52 -41 0
-56 -10 0
-49 -2 0
-55 -24 0
-45 3 0
50 31 0
58 -33 0
-6 -23 0
14 -39 0
43 -56 0
-27 -17 0
-1 -39 0
15 -58 0
52 27 0
57 42 0
40 -20 0
-17 13 0
-37 28 0
-1 -50 0
54 16 0
-44 -36 0
