c PROBLEM_060_070_01  vars=60  clausulas=70  k=2
p cnf 60 70
-56 -59 0
-8 38 0
-31 39 0
-43 -41 0
21 5 0
-23 -16 0
-1 4 0
27 -16 0
33 -12 0
56 -23 0
-20 5 0
-27 -20 0
-35 -56 0
14 42 0
-31 5 0
-4 51 0
-13 -10 0
59 -55 0
-58 10 0
-55 42 0
-18 30 0
-31 -41 0
11 26 0
11 18 0
17 26 0
-31 11 0
-30 -27 0
42 -19 0
-32 56 0
-15 -3 0
-53 57 0
-19 15 0
53 4 0
17 40 0
-10 20 0
-29 31 0
-37 -23 0
6 25 0
-47 -45 0
52 -9 0
-48 -46 0
22 -26 0
6 -3 0
-3 -56 0
57 7 0
56 44 0
2 -34 0
36 40 0
2 -22 0
60 42 0
12 -1 0
53 37 0
8 14 0
54 57 0
-14 28 0
-32 -49 0
21 -10 0
-58 9 0
-2 16 0
49 -24 0
12 -1 0
34 -50 0
-30 6 0
29 5 0
41 57 0
-5 59 0
-41 34 0
-22 -25 0
13 -8 0
-9 50 0
