c PROBLEM_060_070_45  vars=60  clausulas=70  k=2
p cnf 60 70
16 -19 0
9 -22 0
-53 8 0
-6 -54 0
-47 17 0
26 -33 0
32 -20 0
58 -56 0
31 -6 0
-54 -60 0
-2 -46 0
25 -39 0
14 -52 0
-45 -39 0
-40 12 0
58 -8 0
-10 -45 0
-44 -38 0
55 -10 0
28 49 0
25 14 0
4 -52 0
44 -17 0
-36 22 0
35 -16 0
-23 -24 0
-11 42 0
53 40 0
46 32 0
-7 -38 0
30 -18 0
38 -46 0
37 35 0
-6 -7 0
-17 8 0
-36 -3 0
51 48 0
-15 -54 0
-8 -18 0
-7 -15 0
7 34 0
-26 -37 0
30 54 0
39 -52 0
8 -18 0
52 -26 0
-4 -21 0
-33 -27 0
14 -3 0
2 51 0
58 35 0
50 26 0
-27 -57 0
-13 -58 0
5 -23 0
-43 25 0
10 -50 0
-1 51 0
29 -11 0
-41 -21 0
-45 -60 0
23 37 0
46 9 0
3 5 0
59 -15 0
55 -42 0
-48 -51 0
-13 3 0
-37 -27 0
-46 47 0
