c PROBLEM_060_070_23  vars=60  clausulas=70  k=2
p cnf 60 70
-56 -11 0
-12 -23 0
39 14 0
-8 47 0
-22 4 0
-13 44 0
16 31 0
-13 -52 0
-19 33 0
-20 -27 0
46 -23 0
39 50 0
32 7 0
50 11 0
-23 41 0
-42 26 0
55 59 0
5 28 0
2 44 0
-59 44 0
35 -43 0
-60 -27 0
8 13 0
-49 -55 0
16 34 0
29 -40 0
27 -26 0
-60 -10 0
-57 6 0
-16 25 0
28 46 0
31 -27 0
29 -53 0
21 58 0
-18 -55 0
36 17 0
36 -4 0
-18 54 0
15 -38 0
-2 -32 0
-50 -41 0
57 39 0
-51 48 0
-26 -57 0
45 24 0
59 6 0
29 -30 0
32 -56 0
-16 37 0
4 -40 0
-59 40 0
-1 -6 0
49 -50 0
9 51 0
-43 -53 0
21 -19 0
49 -58 0
-28 -40 0
-41 43 0
-17 -14 0
-55 37 0
11 42 0
36 3 0
8 -49 0
-42 -8 0
39 2 0
57 -22 0
-9 -12 0
24 5 0
41 25 0
