c PROBLEM_030_080_37  vars=30  clausulas=80  k=2
p cnf 30 80
12 -24 0
8 -22 0
-8 23 0
18 -19 0
-5 -25 0
17 -21 0
18 10 0
30 -6 0
-27 -15 0
-27 -6 0
-15 8 0
-19 30 0
18 10 0
-1 -6 0
-23 -25 0
-21 -12 0
2 23 0
-26 -11 0
-24 29 0
-10 24 0
7 -13 0
28 13 0
19 -20 0
-26 -7 0
1 20 0
8 6 0
-8 -23 0
1 -29 0
10 19 0
10 -9 0
-21 -10 0
3 -29 0
4 12 0
20 -26 0
-14 28 0
17 -2 0
-5 11 0
-21 -11 0
-7 30 0
19 -6 0
18 13 0
-3 -21 0
26 8 0
4 16 0
-20 -11 0
8 7 0
30 10 0
-17 16 0
-14 -22 0
-12 -13 0
-1 15 0
-4 7 0
7 18 0
3 -14 0
-2 -26 0
-4 -27 0
15 -24 0
14 -18 0
4 -11 0
-21 2 0
-1 -21 0
-20 29 0
-14 -18 0
-16 17 0
-3 27 0
-8 -28 0
-19 -20 0
-26 -8 0
30 -4 0
9 -20 0
25 11 0
7 -10 0
19 -1 0
28 -25 0
25 24 0
-3 -19 0
4 -10 0
-12 -6 0
-27 18 0
-10 -1 0
