c PROBLEM_030_080_20  vars=30  clausulas=80  k=2
p cnf 30 80
-13 -10 0
21 6 0
5 -19 0
6 28 0
25 -8 0
26 -29 0
-16 -19 0
29 -12 0
-26 3 0
3 2 0
28 20 0
-9 20 0
29 -9 0
2 6 0
-17 8 0
-3 14 0
12 -17 0
-23 29 0
24 26 0
-2 -24 0
-25 -20 0
30 -15 0
-30 16 0
4 -30 0
-21 22 0
9 -15 0
25 5 0
-21 -13 0
-6 28 0
-18 -9 0
-23 -7 0
-10 -8 0
22 -18 0
27 -25 0
-6 2 0
-19 15 0
-18 -17 0
-7 -29 0
5 -11 0
16 24 0
3 25 0
21 20 0
3 -26 0
-3 4 0
-4 1 0
19 -9 0
-23 -11 0
26 -19 0
-12 -8 0
-25 24 0
-1 -22 0
-2 -10 0
26 7 0
25 5 0
-3 4 0
-2 -25 0
14 20 0
-28 30 0
20 -10 0
-9 -19 0
-28 20 0
-28 -30 0
12 22 0
-27 -8 0
13 28 0
18 -5 0
-30 -29 0
15 -21 0
-23 -20 0
15 2 0
-30 23 0
-27 20 0
28 22 0
-16 11 0
-15 11 0
4 -10 0
6 -27 0
7 -8 0
24 -20 0
-15 18 0
