c PROBLEM_030_080_50  vars=30  clausulas=80  k=2
p cnf 30 80
-23 13 0
25 -20 0
-28 -5 0
-26 -4 0
-30 -15 0
-24 20 0
-21 2 0
11 -22 0
13 17 0
-22 9 0
1 7 0
-7 -10 0
-1 5 0
15 -19 0
-27 28 0
-7 17 0
-24 -7 0
-29 5 0
-7 5 0
-2 3 0
25 -20 0
3 -6 0
27 3 0
30 -4 0
-8 26 0
-18 5 0
9 6 0
13 -28 0
-22 20 0
20 28 0
-3 29 0
15 22 0
24 8 0
17 29 0
-19 27 0
-7 -21 0
29 -25 0
-27 12 0
-7 16 0
17 -15 0
27 -30 0
-19 9 0
17 -27 0
-19 20 0
-12 -11 0
17 21 0
-5 -26 0
-21 -18 0
-13 29 0
21 25 0
20 -16 0
14 -8 0
-27 8 0
-1 23 0
-26 -6 0
-14 -5 0
5 15 0
-24 -5 0
-15 9 0
-3 15 0
27 -10 0
-21 -30 0
29 -26 0
-19 24 0
8 26 0
9 4 0
28 -15 0
-12 19 0
-18 8 0
-4 7 0
-2 -26 0
-20 18 0
27 6 0
5 2 0
-9 7 0
14 -8 0
-29 26 0
-14 17 0
-24 25 0
-14 5 0
