c PROBLEM_030_080_14  vars=30  clausulas=80  k=2
p cnf 30 80
-25 -24 0
-7 -14 0
22 -6 0
-6 -5 0
-12 10 0
-6 -4 0
20 -26 0
18 -2 0
-4 -11 0
25 22 0
3 9 0
-27 19 0
-7 -2 0
-16 -18 0
-23 6 0
2 5 0
-14 -11 0
-20 29 0
13 1 0
23 17 0
-30 -2 0
-4 14 0
12 -6 0
-22 -17 0
18 8 0
-28 12 0
-19 -23 0
28 -11 0
-30 -6 0
17 8 0
-1 -23 0
-22 -23 0
-15 17 0
27 20 0
4 10 0
10 -26 0
-1 19 0
-27 -11 0
15 -18 0
18 -19 0
17 -1 0
14 11 0
-24 -1 0
27 -12 0
-22 1 0
19 -29 0
22 19 0
-29 16 0
-7 -18 0
19 -24 0
-29 10 0
30 -13 0
10 -27 0
-12 9 0
13 -11 0
-27 11 0
-11 21 0
26 -3 0
19 17 0
7 25 0
1 -22 0
-26 20 0
13 9 0
-23 -12 0
-28 21 0
11 -7 0
-9 24 0
-23 18 0
-2 10 0
-4 5 0
-15 -12 0
-5 -18 0
12 8 0
15 3 0
-8 -3 0
17 -1 0
24 20 0
-7 22 0
-6 26 0
-17 -1 0
