c PROBLEM_030_080_23  vars=30  clausulas=80  k=2
p cnf 30 80
-9 -28 0
5 -7 0
15 9 0
-17 8 0
-19 -20 0
27 -20 0
-16 -6 0
10 3 0
-15 -29 0
-25 -7 0
-19 -28 0
-12 14 0
7 12 0
-13 -30 0
-11 -2 0
-30 -22 0
29 1 0
25 9 0
7 5 0
17 -2 0
-28 -6 0
11 17 0
-10 -5 0
22 -29 0
-25 15 0
16 25 0
-28 15 0
-15 -22 0
-28 11 0
8 -9 0
-15 -16 0
-11 6 0
-20 11 0
17 9 0
-21 18 0
-15 -30 0
-11 -1 0
22 -14 0
3 23 0
-14 -24 0
-26 11 0
-13 3 0
-5 17 0
24 -16 0
9 23 0
2 29 0
7 17 0
-8 -2 0
-22 -16 0
22 28 0
-17 -9 0
-22 20 0
28 10 0
2 10 0
28 30 0
-17 2 0
4 21 0
12 -16 0
-19 -4 0
30 15 0
1 -26 0
-19 4 0
12 13 0
-15 -3 0
24 1 0
11 -15 0
-16 -6 0
23 24 0
-6 15 0
5 -27 0
-7 6 0
11 -16 0
9 -13 0
-27 -12 0
22 -2 0
5 -26 0
-14 -15 0
-22 -23 0
-2 4 0
-4 -17 0
