c PROBLEM_030_080_07  vars=30  clausulas=80  k=2
p cnf 30 80
-1 9 0
-29 30 0
3 24 0
16 -3 0
30 -16 0
-17 -29 0
4 -12 0
11 -9 0
2 -8 0
-16 2 0
24 -14 0
-27 18 0
5 3 0
-25 -30 0
7 5 0
2 1 0
-29 -2 0
13 -11 0
22 -28 0
1 -10 0
-13 -30 0
-7 -25 0
-6 22 0
-18 20 0
13 -1 0
-6 -13 0
-17 -19 0
28 7 0
-21 11 0
10 -8 0
26 -10 0
23 11 0
3 -7 0
-16 -19 0
21 -25 0
-20 14 0
-28 -24 0
27 -9 0
-24 10 0
16 -28 0
-15 -27 0
-7 -6 0
-29 -24 0
-22 12 0
-5 25 0
-7 -12 0
-19 2 0
9 -27 0
-28 -2 0
30 -5 0
-11 5 0
14 -27 0
28 -27 0
19 -9 0
10 -21 0
-13 -4 0
-12 -4 0
-1 -21 0
-26 -16 0
22 17 0
11 -9 0
-5 28 0
-15 19 0
29 -18 0
21 -3 0
7 10 0
-16 -21 0
-3 11 0
-19 29 0
9 11 0
-20 -29 0
3 25 0
22 24 0
19 9 0
-16 20 0
-26 9 0
26 -25 0
-22 7 0
-5 7 0
6 -3 0
