c PROBLEM_030_080_47  vars=30  clausulas=80  k=2
p cnf 30 80
13 -15 0
-11 21 0
29 5 0
-13 -7 0
26 25 0
2 26 0
-6 -27 0
-16 -11 0
21 -8 0
-11 13 0
-1 -14 0
-25 28 0
12 -26 0
25 -7 0
-9 -15 0
6 -30 0
-20 18 0
-13 16 0
-27 -8 0
-22 -20 0
18 20 0
26 -14 0
2 17 0
24 25 0
13 17 0
27 3 0
-21 -18 0
-6 -20 0
27 -14 0
-1 -19 0
21 1 0
-2 -10 0
5 -9 0
25 26 0
12 -21 0
9 -28 0
-30 -13 0
24 -4 0
10 -25 0
10 18 0
18 4 0
-15 -30 0
-1 3 0
8 1 0
-22 -12 0
-14 26 0
27 -28 0
-29 27 0
-16 -29 0
11 -5 0
-16 -12 0
-18 -2 0
11 -7 0
21 14 0
-24 14 0
-18 7 0
-8 1 0
-23 -25 0
7 15 0
-3 -24 0
-17 20 0
13 -26 0
-14 -8 0
27 -4 0
-27 4 0
-15 12 0
4 -21 0
28 20 0
-14 -15 0
-8 -28 0
-8 -4 0
28 29 0
18 20 0
-8 -1 0
-17 -10 0
19 -15 0
-2 -25 0
22 -13 0
-17 -7 0
-14 -19 0
