c PROBLEM_030_080_01  vars=30  clausulas=80  k=2
p cnf 30 80
-2 7 0
13 8 0
21 7 0
-20 28 0
-22 -30 0
-23 -26 0
-7 16 0
-12 -16 0
10 -6 0
-15 -27 0
-9 -12 0
28 25 0
-9 21 0
4 18 0
26 28 0
26 -20 0
-11 2 0
6 28 0
18 26 0
-18 13 0
-9 2 0
13 -22 0
10 -2 0
-15 -22 0
-13 22 0
-27 6 0
20 26 0
-11 -12 0
-15 -19 0
10 22 0
-16 -10 0
7 25 0
-19 -10 0
22 15 0
-1 -3 0
20 -29 0
-3 -8 0
14 -26 0
-10 -26 0
-12 -23 0
23 -16 0
6 24 0
21 1 0
-17 -10 0
-13 19 0
18 -1 0
-21 20 0
-17 -28 0
19 -23 0
-30 21 0
-9 19 0
23 14 0
-28 -18 0
-28 10 0
5 8 0
-7 17 0
18 -5 0
-13 -29 0
7 -23 0
13 19 0
22 -20 0
-10 -24 0
13 -11 0
-30 -9 0
25 9 0
-12 -3 0
28 7 0
-17 -12 0
-1 -2 0
5 -25 0
24 5 0
4 -7 0
-11 30 0
5 -21 0
-20 5 0
-20 -13 0
-13 3 0
-16 -13 0
28 12 0
22 -24 0
