c PROBLEM_030_080_41  vars=30  clausulas=80  k=2
p cnf 30 80
20 29 0
-10 -29 0
5 4 0
25 20 0
-22 17 0
26 -21 0
1 12 0
-11 -27 0
15 -8 0
-30 -1 0
-29 -26 0
8 9 0
-1 -5 0
-26 -29 0
-22 -11 0
-5 6 0
-1 21 0
-9 11 0
4 -14 0
-21 25 0
-10 -24 0
26 -5 0
10 28 0
-10 19 0
-13 18 0
30 8 0
12 -4 0
30 21 0
29 -10 0
-7 4 0
-4 24 0
-19 11 0
12 4 0
8 2 0
25 28 0
-27 -1 0
-25 9 0
-18 -20 0
2 -22 0
24 -13 0
-7 8 0
21 -9 0
16 9 0
12 -6 0
-17 15 0
-11 -5 0
30 -17 0
12 28 0
-13 7 0
16 -14 0
-15 -30 0
15 -27 0
-28 15 0
-29 -2 0
-10 -13 0
27 -8 0
10 -9 0
-6 -8 0
30 1 0
-14 8 0
-29 -18 0
26 3 0
15 17 0
14 5 0
-17 27 0
-30 4 0
-7 9 0
-26 3 0
10 -8 0
1 -22 0
15 -23 0
28 -25 0
-8 17 0
23 -5 0
-2 -24 0
14 5 0
-19 -2 0
-10 1 0
-5 -21 0
19 28 0
