c PROBLEM_030_080_08  vars=30  clausulas=80  k=2
p cnf 30 80
21 -19 0
-26 11 0
-1 27 0
3 21 0
11 -6 0
-23 7 0
-23 13 0
-8 10 0
-30 -13 0
-15 6 0
17 29 0
-18 27 0
-23 8 0
-1 -29 0
-17 14 0
-1 -22 0
6 14 0
5 22 0
-20 28 0
14 -27 0
-11 27 0
-23 25 0
17 24 0
-2 -10 0
-30 -12 0
5 20 0
27 3 0
-2 17 0
6 20 0
15 5 0
-5 -15 0
-28 2 0
-18 -30 0
-23 -13 0
7 -23 0
21 29 0
-13 7 0
23 -1 0
-19 18 0
6 -14 0
14 -1 0
28 6 0
18 -13 0
-23 -1 0
28 6 0
-24 -11 0
19 20 0
2 -6 0
-8 -23 0
-18 23 0
1 6 0
-23 8 0
-7 15 0
-4 7 0
-6 -4 0
-17 -25 0
-19 26 0
-18 10 0
-21 -26 0
-10 20 0
-29 -30 0
27 2 0
2 -21 0
-13 20 0
-1 -30 0
-18 2 0
-17 22 0
29 -16 0
-2 13 0
-29 -11 0
-14 15 0
8 -2 0
7 25 0
22 -12 0
-9 12 0
1 -11 0
21 -3 0
-11 -12 0
-14 18 0
6 13 0
