c PROBLEM_030_080_46  vars=30  clausulas=80  k=2
p cnf 30 80
-26 11 0
-22 -5 0
-27 10 0
-5 -1 0
26 29 0
2 19 0
17 -26 0
21 18 0
21 27 0
-5 24 0
30 -10 0
-14 -16 0
-7 -26 0
-8 -5 0
-5 18 0
25 -20 0
23 -19 0
-22 -4 0
9 3 0
-12 10 0
-11 13 0
25 -17 0
-14 -20 0
13 5 0
18 -16 0
-24 6 0
29 23 0
24 18 0
5 -24 0
5 -2 0
-26 -22 0
25 7 0
-6 28 0
1 -10 0
-10 27 0
-7 30 0
21 -27 0
13 8 0
-22 11 0
-1 25 0
-18 11 0
21 -19 0
-19 -30 0
-25 -19 0
3 30 0
-1 -8 0
12 -24 0
-22 1 0
-30 1 0
4 5 0
14 18 0
29 -27 0
30 -12 0
24 -13 0
29 -21 0
-20 -6 0
24 -28 0
-2 -17 0
-15 -21 0
-16 -27 0
-6 -16 0
-30 9 0
29 5 0
23 -28 0
-14 6 0
-19 -2 0
2 18 0
5 -14 0
-28 3 0
14 -21 0
-3 -23 0
-15 -20 0
-4 18 0
-10 5 0
13 8 0
16 -5 0
-18 9 0
28 27 0
-6 -4 0
-14 -10 0
