c PROBLEM_030_080_17  vars=30  clausulas=80  k=2
p cnf 30 80
-7 15 0
18 12 0
-10 6 0
-23 12 0
-28 -13 0
5 6 0
25 11 0
-8 5 0
24 3 0
-19 -26 0
-1 -22 0
-26 30 0
-14 7 0
14 -18 0
-13 -23 0
29 -4 0
23 5 0
27 -15 0
-12 -5 0
-2 -22 0
1 4 0
21 -12 0
13 8 0
-20 -3 0
15 -11 0
14 7 0
-25 10 0
17 -21 0
21 22 0
-14 8 0
-2 -13 0
25 27 0
-26 11 0
-3 28 0
29 21 0
27 11 0
-5 21 0
-16 24 0
9 -27 0
13 -2 0
-6 13 0
-3 13 0
14 13 0
1 18 0
10 2 0
-18 3 0
-9 3 0
-11 17 0
-10 -17 0
-22 -7 0
16 4 0
9 13 0
1 21 0
28 -10 0
2 14 0
-2 4 0
-4 -19 0
23 21 0
13 -9 0
-24 8 0
11 30 0
24 18 0
-26 -30 0
30 15 0
-4 27 0
-20 -17 0
23 -10 0
-25 18 0
21 29 0
4 1 0
27 -5 0
19 13 0
17 29 0
13 3 0
-19 -21 0
22 25 0
16 18 0
29 -6 0
29 -10 0
-28 15 0
