c PROBLEM_030_080_39  vars=30  clausulas=80  k=2
p cnf 30 80
15 -13 0
12 -7 0
-4 -15 0
27 -29 0
-8 21 0
-19 10 0
-23 18 0
-17 21 0
29 -25 0
18 -24 0
19 -5 0
-28 -11 0
8 -26 0
-2 -8 0
15 -21 0
-11 -9 0
-7 11 0
-15 3 0
-7 3 0
-23 -30 0
-16 -25 0
-16 -23 0
11 5 0
-19 -8 0
7 -20 0
-17 -29 0
-4 -7 0
-28 3 0
6 25 0
-19 -2 0
-26 19 0
4 -10 0
18 17 0
-26 -23 0
6 15 0
3 -14 0
20 -10 0
-21 -6 0
-27 16 0
-29 5 0
24 -23 0
-17 7 0
18 -20 0
14 -9 0
30 -27 0
22 -15 0
-24 -26 0
28 -3 0
-6 -17 0
-29 -18 0
19 23 0
13 -2 0
-25 -26 0
-13 16 0
-2 -19 0
23 21 0
-27 23 0
21 19 0
-21 10 0
28 -22 0
15 -18 0
-30 15 0
-13 6 0
4 3 0
1 -24 0
18 -30 0
-11 6 0
21 29 0
-9 -11 0
14 21 0
11 22 0
22 -1 0
-29 14 0
19 14 0
-5 -19 0
22 3 0
-19 -20 0
12 -24 0
-1 -25 0
-28 -24 0
