c PROBLEM_030_080_15  vars=30  clausulas=80  k=2
p cnf 30 80
-14 7 0
17 7 0
-5 -10 0
-15 1 0
24 -25 0
10 -5 0
13 -4 0
-5 -13 0
12 -29 0
21 -19 0
-26 23 0
11 -21 0
3 -6 0
27 -19 0
-13 -23 0
19 -22 0
3 -19 0
9 10 0
9 5 0
-19 7 0
22 -26 0
26 2 0
3 -17 0
-18 14 0
-27 17 0
-30 -10 0
-30 -11 0
-24 29 0
24 30 0
-4 22 0
3 -9 0
19 -12 0
-25 2 0
-4 26 0
28 -30 0
-22 20 0
-1 20 0
2 -4 0
30 -16 0
27 23 0
14 1 0
-3 -6 0
-9 -7 0
16 -13 0
28 4 0
14 3 0
22 28 0
-25 4 0
13 26 0
-13 -14 0
6 2 0
-21 -20 0
-6 18 0
-18 -16 0
-17 -7 0
-13 -12 0
-19 21 0
-29 -3 0
-12 18 0
30 15 0
-13 8 0
-25 -8 0
-30 24 0
-1 13 0
17 3 0
16 -25 0
-19 -24 0
14 7 0
21 22 0
-20 15 0
16 -9 0
-24 -19 0
-21 27 0
20 -24 0
10 -25 0
7 -2 0
22 -5 0
-29 -18 0
-5 4 0
29 -4 0
