c PROBLEM_030_080_10  vars=30  clausulas=80  k=2
p cnf 30 80
8 22 0
23 15 0
-25 -11 0
-24 -16 0
5 24 0
-4 1 0
19 -23 0
13 -3 0
-3 -11 0
-16 3 0
30 26 0
23 21 0
27 11 0
29 -7 0
10 -26 0
19 -23 0
18 7 0
6 3 0
26 -12 0
9 20 0
16 -4 0
-5 -26 0
-20 10 0
25 -16 0
-25 -30 0
8 10 0
11 17 0
-25 -2 0
28 -17 0
-23 11 0
-27 2 0
15 3 0
-26 6 0
21 19 0
29 -19 0
-15 7 0
5 -21 0
-26 -12 0
-15 -21 0
29 1 0
13 -17 0
-5 18 0
28 -17 0
7 17 0
-22 -29 0
4 -22 0
-11 -9 0
-7 8 0
-14 19 0
-12 -2 0
-9 -18 0
-5 22 0
-3 -13 0
-4 -24 0
-5 -4 0
-6 26 0
-4 -3 0
13 -21 0
11 10 0
15 -19 0
-17 25 0
18 1 0
1 -25 0
20 19 0
5 -8 0
14 -22 0
24 16 0
8 -9 0
-3 -7 0
28 7 0
-15 14 0
7 13 0
15 -2 0
-15 -26 0
21 15 0
-6 14 0
-16 20 0
28 -18 0
26 -11 0
-20 -23 0
