c PROBLEM_030_080_09  vars=30  clausulas=80  k=2
p cnf 30 80
-16 12 0
-28 21 0
-28 -13 0
-15 -4 0
-8 -13 0
25 26 0
-23 1 0
7 -6 0
-30 -12 0
-26 5 0
26 -22 0
20 -3 0
-11 -25 0
-3 19 0
-14 -17 0
20 -16 0
2 28 0
5 -10 0
4 -27 0
21 -29 0
21 25 0
-26 -11 0
-1 25 0
20 2 0
11 -3 0
-18 25 0
25 -15 0
-5 15 0
-5 -6 0
-10 22 0
-23 16 0
-30 6 0
5 10 0
8 10 0
26 -21 0
4 -7 0
-28 -8 0
-15 -6 0
-14 10 0
-5 -30 0
-25 -5 0
26 -27 0
13 21 0
19 -28 0
-3 21 0
29 20 0
18 -28 0
2 27 0
-7 -30 0
-15 -22 0
28 -12 0
-22 18 0
-11 9 0
30 -12 0
18 -23 0
17 -14 0
2 -3 0
-16 26 0
-2 -4 0
-5 25 0
-14 -11 0
-22 12 0
-30 25 0
-4 -22 0
-21 -30 0
-14 -16 0
20 -21 0
13 -9 0
24 2 0
-20 -6 0
-29 -13 0
-17 -26 0
-27 -24 0
26 13 0
15 -27 0
-14 5 0
-2 18 0
-30 25 0
-18 27 0
-4 -11 0
