c PROBLEM_030_080_19  vars=30  clausulas=80  k=2
p cnf 30 80
10 -9 0
10 25 0
24 13 0
-24 25 0
-12 3 0
27 -29 0
22 23 0
-10 12 0
-25 9 0
-23 5 0
-28 -6 0
-4 -20 0
11 -2 0
26 -25 0
-17 13 0
10 -5 0
22 -3 0
27 4 0
11 -19 0
-16 -30 0
11 15 0
8 12 0
15 19 0
-21 10 0
-1 -16 0
-22 -10 0
4 15 0
-17 -18 0
20 -17 0
-15 -27 0
-30 -27 0
17 -9 0
23 1 0
28 -21 0
-1 -6 0
10 28 0
9 13 0
29 -27 0
-3 20 0
-10 5 0
11 17 0
15 23 0
-23 -12 0
-9 -29 0
10 18 0
-21 -19 0
-5 -7 0
-24 -5 0
-15 1 0
13 16 0
19 25 0
-10 -21 0
6 -20 0
17 -13 0
15 -16 0
14 29 0
24 2 0
29 8 0
28 -6 0
6 21 0
19 16 0
28 -7 0
1 28 0
23 -17 0
-8 22 0
-19 -12 0
21 15 0
10 22 0
19 -30 0
-16 30 0
18 15 0
11 -18 0
1 23 0
8 9 0
18 -8 0
19 -2 0
-28 -13 0
20 16 0
-27 4 0
-23 -3 0
