c PROBLEM_030_080_11  vars=30  clausulas=80  k=2
p cnf 30 80
-29 16 0
-17 3 0
-24 29 0
-27 -4 0
26 28 0
5 -13 0
20 19 0
11 15 0
-14 -27 0
4 -1 0
7 14 0
-20 4 0
-1 24 0
12 26 0
-11 16 0
9 -2 0
-17 -13 0
8 1 0
19 23 0
-17 -29 0
27 -3 0
-30 18 0
25 -12 0
12 26 0
-1 7 0
30 15 0
-23 28 0
22 -26 0
-13 -14 0
7 6 0
3 24 0
-23 9 0
10 -1 0
26 18 0
12 -22 0
-12 19 0
2 -10 0
13 -6 0
-3 25 0
13 -27 0
-9 2 0
-6 21 0
-15 6 0
-23 13 0
-4 11 0
19 25 0
-10 15 0
15 -18 0
13 -15 0
-18 -19 0
-30 21 0
19 -29 0
6 -29 0
10 14 0
13 2 0
-22 -5 0
2 10 0
18 -1 0
24 29 0
7 -23 0
-16 -25 0
16 3 0
-10 -4 0
-27 -9 0
-16 4 0
-12 -28 0
8 -2 0
18 -19 0
10 -3 0
24 20 0
-23 8 0
8 9 0
-4 -26 0
-5 30 0
17 -5 0
21 28 0
-26 -3 0
-10 25 0
-2 -15 0
-15 2 0
