c PROBLEM_030_080_06  vars=30  clausulas=80  k=2
p cnf 30 80
-18 25 0
-10 -13 0
6 15 0
-20 4 0
-14 -5 0
26 7 0
11 28 0
-18 -27 0
30 5 0
-9 -28 0
16 -24 0
10 22 0
26 -14 0
-21 -15 0
22 29 0
-11 -20 0
13 -9 0
-18 -15 0
29 -23 0
17 27 0
20 -15 0
19 -27 0
-22 -9 0
13 21 0
-12 25 0
10 1 0
12 15 0
19 9 0
13 -14 0
13 28 0
18 -19 0
-14 19 0
-5 -18 0
-8 -12 0
29 13 0
10 -27 0
13 30 0
-26 -25 0
-6 21 0
-13 17 0
7 -19 0
22 20 0
11 27 0
24 9 0
22 26 0
-22 15 0
11 23 0
-14 -7 0
-24 -18 0
-3 -29 0
25 17 0
4 14 0
18 -15 0
2 -16 0
-15 10 0
-26 -18 0
9 8 0
16 -15 0
7 -16 0
-16 -7 0
-26 23 0
-1 4 0
-30 -6 0
8 10 0
28 -15 0
-9 30 0
15 17 0
-17 -19 0
-30 -10 0
-7 23 0
-20 26 0
6 27 0
-10 7 0
12 15 0
-18 20 0
14 -24 0
11 22 0
-23 -6 0
-21 -3 0
26 29 0
