c PROBLEM_030_080_36  vars=30  clausulas=80  k=2
p cnf 30 80
7 3 0
14 15 0
6 -5 0
14 -15 0
-11 1 0
22 3 0
5 -17 0
9 -12 0
16 -21 0
-13 -17 0
3 22 0
14 -2 0
-13 19 0
-3 -18 0
-30 -6 0
5 -12 0
-28 -10 0
-16 -6 0
-17 3 0
-4 20 0
17 4 0
9 -12 0
8 -15 0
-8 4 0
11 4 0
-15 13 0
18 -10 0
12 27 0
15 -27 0
-4 11 0
-15 21 0
24 15 0
-15 24 0
-1 -19 0
-10 -8 0
-27 -7 0
-10 17 0
-27 12 0
-12 9 0
-7 -18 0
-20 -6 0
19 -1 0
23 -24 0
2 5 0
26 -29 0
10 1 0
-18 27 0
23 15 0
-2 -25 0
-20 -26 0
21 28 0
15 24 0
17 -26 0
13 9 0
-15 22 0
-22 30 0
30 5 0
-15 3 0
-17 28 0
-13 4 0
-7 -24 0
-1 -5 0
-1 -22 0
-7 5 0
-14 12 0
-8 4 0
3 19 0
-24 -5 0
-10 16 0
-5 -19 0
11 -19 0
-15 -4 0
-19 -27 0
1 -14 0
21 7 0
-25 -10 0
-20 -23 0
5 28 0
19 2 0
30 9 0
