c PROBLEM_030_080_35  vars=30  clausulas=80  k=2
p cnf 30 80
-18 -7 0
14 28 0
16 8 0
14 -6 0
10 7 0
22 27 0
-8 21 0
19 -9 0
-29 11 0
18 -16 0
-27 6 0
-18 -24 0
-29 3 0
-28 20 0
-17 -24 0
-5 -16 0
22 10 0
-3 -26 0
-4 -30 0
-4 17 0
14 -23 0
-7 12 0
4 25 0
-4 -15 0
-13 -25 0
-9 11 0
14 22 0
-26 21 0
-1 -13 0
26 -25 0
-19 9 0
10 29 0
18 -17 0
1 8 0
5 2 0
-12 -27 0
-1 -6 0
-8 -15 0
14 -17 0
-4 -3 0
-6 29 0
-16 -7 0
21 16 0
5 4 0
21 -12 0
-23 -27 0
12 30 0
4 -12 0
-5 13 0
-18 -14 0
-23 -3 0
2 -30 0
29 -25 0
-24 -5 0
24 4 0
-13 -20 0
21 6 0
7 12 0
16 24 0
-9 24 0
22 -4 0
22 1 0
-16 -14 0
18 27 0
7 11 0
-28 -30 0
9 -15 0
28 24 0
14 28 0
29 -9 0
5 -4 0
-9 -11 0
10 -21 0
8 2 0
20 10 0
19 -26 0
28 -10 0
27 -23 0
-25 6 0
24 -29 0
