c PROBLEM_030_080_44  vars=30  clausulas=80  k=2
p cnf 30 80
-28 -7 0
-7 1 0
20 -13 0
-30 -3 0
-22 -29 0
-19 -26 0
9 -10 0
21 -18 0
-5 2 0
-27 7 0
-25 29 0
29 -11 0
-7 12 0
-3 20 0
15 -7 0
-7 24 0
13 -12 0
-12 -16 0
27 21 0
-9 -21 0
2 13 0
-6 -29 0
-1 -3 0
-23 -30 0
13 29 0
-23 7 0
3 6 0
9 -28 0
-1 -7 0
-19 18 0
-12 -20 0
-21 8 0
-6 -17 0
7 -30 0
8 -19 0
-13 1 0
-3 21 0
-20 7 0
12 -29 0
-1 -15 0
-12 25 0
-16 -23 0
-14 -23 0
-25 -3 0
8 17 0
26 9 0
1 30 0
-18 -20 0
3 4 0
-7 14 0
7 28 0
-6 24 0
19 30 0
-11 -17 0
-26 25 0
21 -30 0
-12 -11 0
-28 4 0
-30 -15 0
-22 -9 0
-7 -15 0
11 -10 0
-27 -6 0
4 -18 0
-28 -2 0
-7 22 0
18 19 0
7 -28 0
7 11 0
-26 29 0
-12 -5 0
20 -2 0
-16 26 0
-24 -2 0
-28 26 0
5 -30 0
14 23 0
13 6 0
-10 -4 0
24 13 0
