c PROBLEM_015_070_34  vars=15  clausulas=70  k=2
p cnf 15 70
-1 -13 0
4 2 0
10 -7 0
9 3 0
-10 -2 0
7 -12 0
-12 -8 0
-4 -14 0
-13 -5 0
11 7 0
-11 -9 0
-13 -5 0
-9 -13 0
-13 14 0
-12 9 0
-10 9 0
5 8 0
8 15 0
-11 12 0
14 9 0
5 2 0
12 5 0
11 -13 0
-10 -8 0
-10 -1 0
2 -11 0
7 -4 0
-9 -13 0
-10 -8 0
15 13 0
12 6 0
1 4 0
-12 4 0
3 -4 0
-11 15 0
8 7 0
-9 -13 0
14 4 0
-7 14 0
-14 -2 0
-14 -9 0
-5 13 0
12 11 0
4 -1 0
-2 7 0
2 -15 0
-7 -6 0
8 11 0
6 -12 0
6 -3 0
-15 8 0
-12 7 0
3 -10 0
9 -7 0
3 11 0
-3 5 0
-4 13 0
11 6 0
7 -4 0
-8 5 0
15 -2 0
10 -7 0
7 15 0
8 10 0
-1 -10 0
2 6 0
-9 -15 0
-6 12 0
-10 -12 0
-3 1 0
