c PROBLEM_015_070_46  vars=15  clausulas=70  k=2
p cnf 15 70
-14 -12 0
7 -15 0
-2 7 0
-12 14 0
1 -10 0
7 -3 0
15 3 0
14 9 0
-14 -12 0
4 -3 0
5 12 0
-7 -12 0
4 -8 0
3 10 0
15 4 0
-8 15 0
-3 14 0
-13 -10 0
7 9 0
7 -2 0
8 7 0
-2 12 0
3 9 0
-7 -13 0
1 10 0
-2 10 0
-15 -4 0
11 -13 0
15 1 0
-10 4 0
5 -13 0
12 4 0
7 -2 0
15 3 0
2 -15 0
15 -8 0
12 -1 0
8 -11 0
8 -2 0
12 10 0
-14 4 0
-1 -6 0
4 1 0
-14 -13 0
-1 -10 0
4 -5 0
6 -8 0
-15 -11 0
9 -11 0
-8 -11 0
-11 9 0
-13 -8 0
-9 15 0
2 6 0
14 2 0
2 9 0
-1 9 0
10 12 0
2 -15 0
12 -3 0
-12 6 0
15 -4 0
-3 -12 0
-6 -1 0
-11 -5 0
8 -9 0
-11 15 0
2 8 0
-3 5 0
3 -14 0
