c PROBLEM_015_070_38  vars=15  clausulas=70  k=2
p cnf 15 70
2 -9 0
-1 3 0
-7 -9 0
-14 -12 0
14 8 0
-14 -5 0
6 1 0
9 -2 0
-12 8 0
13 6 0
-12 5 0
-14 -9 0
5 11 0
-13 14 0
13 -6 0
6 7 0
-3 -7 0
-13 -8 0
-8 -12 0
9 -6 0
-13 5 0
1 5 0
-10 3 0
4 -3 0
13 7 0
12 -15 0
-1 -4 0
-9 2 0
-5 1 0
-1 -12 0
1 -10 0
4 -6 0
-7 14 0
11 5 0
5 -2 0
12 -3 0
-3 -10 0
-7 -11 0
7 -4 0
13 11 0
-12 -10 0
-12 6 0
-9 1 0
-7 14 0
-1 -2 0
9 15 0
5 8 0
-3 -5 0
-15 -5 0
-6 12 0
-4 -6 0
-15 12 0
-11 -4 0
-8 12 0
-14 2 0
-5 -7 0
4 -8 0
-10 -6 0
-6 8 0
-8 11 0
1 -3 0
-4 13 0
8 -14 0
-7 -15 0
-15 -3 0
12 -2 0
-9 7 0
9 11 0
6 -14 0
-12 8 0
