c PROBLEM_015_070_09  vars=15  clausulas=70  k=2
p cnf 15 70
-11 -3 0
-11 -7 0
-14 -11 0
15 3 0
14 -13 0
3 -11 0
12 8 0
13 2 0
-12 13 0
-11 10 0
-5 2 0
-6 -3 0
11 -1 0
4 -10 0
9 -5 0
4 -6 0
-15 -2 0
-14 2 0
-10 -11 0
-4 -14 0
8 -9 0
-4 -6 0
-3 8 0
11 -12 0
-11 7 0
-12 2 0
-5 15 0
4 15 0
7 10 0
2 -12 0
4 5 0
-11 2 0
-11 -8 0
-11 10 0
-8 -11 0
-1 15 0
-15 -5 0
12 1 0
-8 6 0
15 -11 0
2 8 0
-7 1 0
2 14 0
6 8 0
7 -4 0
4 12 0
-7 11 0
2 -7 0
15 11 0
-2 -7 0
-11 10 0
11 15 0
-14 -7 0
14 -1 0
-5 2 0
9 2 0
-11 -13 0
-5 -6 0
-1 -9 0
-10 3 0
10 13 0
6 -10 0
-11 -9 0
-11 12 0
7 -1 0
-14 -3 0
6 15 0
1 8 0
2 -13 0
3 2 0
