c PROBLEM_015_070_25  vars=15  clausulas=70  k=2
p cnf 15 70
-7 -10 0
7 -5 0
-9 -14 0
15 9 0
2 8 0
10 -14 0
-12 -13 0
5 6 0
7 -6 0
2 -13 0
-7 2 0
14 7 0
-11 -10 0
-3 -7 0
13 12 0
-2 4 0
5 8 0
-10 7 0
-1 4 0
4 1 0
-4 -9 0
13 12 0
-12 -15 0
10 15 0
-8 -4 0
-1 -12 0
-10 6 0
14 -8 0
12 13 0
-6 8 0
-1 -2 0
6 2 0
5 13 0
3 -7 0
1 6 0
6 -8 0
4 15 0
-14 -4 0
-11 2 0
10 -7 0
-13 8 0
-2 -10 0
-9 -1 0
-3 -1 0
-14 -4 0
8 6 0
-3 -1 0
10 8 0
5 10 0
-4 -8 0
-10 15 0
4 -3 0
13 6 0
6 -4 0
-4 15 0
14 11 0
-11 12 0
7 9 0
-2 -6 0
14 1 0
12 -9 0
-10 9 0
-9 -13 0
1 12 0
13 -14 0
-5 -2 0
-14 4 0
-11 -7 0
15 -9 0
7 9 0
