c PROBLEM_015_070_19  vars=15  clausulas=70  k=2
p cnf 15 70
1 -13 0
-10 7 0
13 -10 0
-12 15 0
15 10 0
13 -8 0
8 -9 0
15 7 0
15 -4 0
-6 9 0
14 7 0
-11 2 0
9 -10 0
12 10 0
8 9 0
9 -6 0
-2 3 0
-12 -11 0
11 -6 0
-3 5 0
-8 2 0
9 -15 0
8 12 0
10 13 0
-2 13 0
14 7 0
12 9 0
3 -11 0
-6 5 0
-3 -11 0
-3 -15 0
-3 -6 0
2 5 0
-1 -10 0
5 15 0
15 -1 0
-11 -10 0
6 -10 0
12 1 0
-3 12 0
6 -9 0
-7 -10 0
9 -6 0
3 8 0
10 15 0
13 8 0
10 -3 0
2 13 0
-9 -10 0
14 -15 0
-4 14 0
-10 15 0
11 6 0
-15 -11 0
-7 13 0
2 8 0
-6 -5 0
13 -1 0
-15 3 0
10 -12 0
-3 2 0
14 2 0
-6 4 0
-8 1 0
-2 10 0
2 -3 0
3 13 0
14 -6 0
6 2 0
6 -5 0
