c PROBLEM_015_070_31  vars=15  clausulas=70  k=2
p cnf 15 70
12 11 0
-13 -3 0
-10 7 0
3 -8 0
-12 -4 0
-5 1 0
-8 -3 0
12 -13 0
14 5 0
13 5 0
10 -7 0
5 13 0
-10 -14 0
3 2 0
14 3 0
-15 10 0
3 -7 0
2 -15 0
9 8 0
-12 -6 0
3 11 0
3 15 0
2 4 0
-1 9 0
-6 14 0
14 -3 0
5 3 0
11 -4 0
1 -11 0
-8 12 0
-2 -8 0
10 15 0
13 -9 0
6 15 0
6 14 0
3 -6 0
10 -15 0
-8 -3 0
-5 9 0
15 -8 0
12 -7 0
-6 -12 0
1 12 0
2 5 0
3 -6 0
1 14 0
4 -3 0
-11 6 0
14 8 0
-9 10 0
-1 15 0
-11 6 0
7 9 0
7 -11 0
12 -1 0
5 -9 0
15 2 0
-5 13 0
11 6 0
9 -6 0
-2 12 0
4 -3 0
-10 -1 0
12 5 0
-2 -4 0
5 8 0
-2 -4 0
-10 -6 0
-1 -5 0
-7 -6 0
