c PROBLEM_015_070_23  vars=15  clausulas=70  k=2
p cnf 15 70
-12 1 0
2 11 0
10 -12 0
11 12 0
-12 13 0
10 8 0
-3 -13 0
4 -6 0
8 -5 0
9 -11 0
-8 7 0
-11 8 0
-9 -2 0
-3 4 0
-11 9 0
10 12 0
7 -3 0
7 -5 0
7 -11 0
6 -11 0
-7 14 0
-8 -7 0
-3 10 0
-12 14 0
15 -14 0
7 -11 0
-3 -1 0
-6 -5 0
4 10 0
1 -13 0
8 -5 0
5 -13 0
-6 12 0
-3 12 0
8 5 0
-3 -9 0
13 15 0
-12 -9 0
10 -5 0
1 4 0
9 -5 0
-3 -14 0
9 -15 0
-14 -10 0
5 -15 0
1 14 0
-4 10 0
12 -4 0
6 -14 0
4 7 0
15 10 0
6 8 0
-9 -12 0
4 13 0
7 6 0
-9 2 0
3 -6 0
-15 -7 0
-11 -1 0
-4 -10 0
15 7 0
1 -14 0
11 10 0
-11 13 0
-7 -3 0
-7 -12 0
12 5 0
2 -1 0
-4 -11 0
-15 -2 0
