c PROBLEM_015_070_13  vars=15  clausulas=70  k=2
p cnf 15 70
-5 -6 0
7 -8 0
3 -10 0
12 -14 0
7 -1 0
15 1 0
5 4 0
9 -3 0
15 12 0
15 -13 0
-11 -2 0
9 -6 0
-11 7 0
2 14 0
10 -9 0
6 -10 0
-15 1 0
-4 -11 0
3 12 0
6 -13 0
11 -9 0
10 15 0
15 -13 0
9 -14 0
-7 2 0
13 -12 0
7 4 0
-10 -9 0
-13 -8 0
10 -11 0
9 10 0
-5 -13 0
-9 12 0
-5 -14 0
-1 14 0
1 -14 0
-2 -3 0
7 8 0
-8 -2 0
3 7 0
3 -15 0
7 10 0
8 -6 0
10 13 0
1 -11 0
-11 -3 0
-10 9 0
9 1 0
2 -12 0
4 2 0
3 14 0
-1 -13 0
-11 5 0
-2 15 0
-1 6 0
-6 -14 0
-13 -9 0
-1 -13 0
-7 -6 0
-5 -9 0
-11 4 0
-13 11 0
8 -3 0
9 1 0
-13 9 0
14 -6 0
-13 7 0
-8 14 0
14 10 0
-11 -2 0
