c PROBLEM_015_070_42  vars=15  clausulas=70  k=2
p cnf 15 70
9 -12 0
11 13 0
14 10 0
-1 -8 0
1 13 0
-9 2 0
1 -13 0
14 1 0
-13 -10 0
-7 10 0
-10 1 0
-13 -6 0
-7 -1 0
2 8 0
-13 -10 0
6 3 0
14 -10 0
4 -1 0
9 -7 0
-13 5 0
14 9 0
-9 -7 0
12 10 0
5 -3 0
6 2 0
-1 4 0
14 -7 0
8 -13 0
-14 2 0
-11 13 0
-14 -12 0
7 10 0
-12 5 0
-2 3 0
8 -13 0
3 -8 0
-6 -11 0
-2 -6 0
5 10 0
12 -15 0
12 -8 0
6 -4 0
6 11 0
-6 -5 0
15 9 0
7 -1 0
-5 -7 0
15 -1 0
6 -5 0
13 12 0
-11 2 0
13 -3 0
-14 4 0
15 13 0
11 -8 0
4 7 0
-7 -13 0
-8 -3 0
2 -12 0
14 -1 0
-3 -2 0
1 -10 0
-15 9 0
-3 -12 0
5 -10 0
-8 12 0
14 -9 0
3 -14 0
11 2 0
-13 11 0
