c PROBLEM_015_070_29  vars=15  clausulas=70  k=2
p cnf 15 70
-12 -2 0
4 11 0
13 -8 0
-7 1 0
-2 -15 0
-9 -2 0
-7 -15 0
-4 -2 0
12 -14 0
-7 8 0
10 12 0
-14 -15 0
-6 9 0
-12 -2 0
13 6 0
-12 -9 0
-5 14 0
-15 9 0
9 12 0
14 -6 0
-1 14 0
-3 4 0
1 13 0
-10 15 0
-12 5 0
-3 -12 0
13 -10 0
9 -2 0
3 -6 0
1 -14 0
6 9 0
-15 5 0
11 -9 0
-14 -15 0
3 -4 0
-6 5 0
-5 13 0
-6 -10 0
-3 -4 0
1 5 0
-13 6 0
-3 -14 0
12 5 0
-1 11 0
1 -10 0
-9 -10 0
6 -15 0
-5 3 0
10 -11 0
4 -2 0
-11 -12 0
2 -11 0
15 3 0
12 -14 0
12 9 0
4 -7 0
8 9 0
12 14 0
-13 9 0
10 -5 0
-15 12 0
-15 -14 0
-7 14 0
15 -6 0
-11 -10 0
3 -12 0
-6 -7 0
11 5 0
-7 -8 0
9 14 0
