c PROBLEM_015_070_03  vars=15  clausulas=70  k=2
p cnf 15 70
8 -5 0
7 2 0
14 -4 0
1 -3 0
4 -12 0
1 12 0
1 2 0
-5 -6 0
15 -12 0
5 7 0
-3 -12 0
6 12 0
-1 -13 0
2 5 0
-11 2 0
-6 -14 0
-4 1 0
13 4 0
12 -2 0
-13 5 0
15 13 0
-8 10 0
12 -6 0
8 -6 0
3 14 0
-14 9 0
-1 7 0
-14 -12 0
1 8 0
4 -5 0
8 13 0
7 12 0
13 4 0
-5 -6 0
-8 14 0
-5 -14 0
5 15 0
2 9 0
-11 1 0
10 -12 0
-12 -7 0
-10 -9 0
-6 -11 0
3 15 0
-2 -15 0
15 -10 0
-3 -2 0
-9 -7 0
7 -6 0
-6 7 0
-9 -5 0
10 4 0
5 4 0
-9 -5 0
-10 15 0
-2 -1 0
-6 5 0
-6 15 0
-1 -12 0
-7 8 0
-7 -2 0
1 12 0
-5 -7 0
-14 3 0
-2 -3 0
-13 -1 0
-5 7 0
-7 -8 0
10 -8 0
-5 -2 0
