c PROBLEM_015_070_08  vars=15  clausulas=70  k=2
p cnf 15 70
10 14 0
11 7 0
-14 9 0
-1 -10 0
6 14 0
-1 -14 0
-12 2 0
15 14 0
-1 -11 0
-2 6 0
4 -6 0
-2 1 0
-10 3 0
-6 15 0
2 -5 0
-14 13 0
4 5 0
-2 -12 0
-10 -4 0
-8 14 0
-5 -4 0
-10 15 0
9 -6 0
-4 -10 0
-7 -8 0
8 14 0
-13 -6 0
-10 12 0
2 -15 0
-13 10 0
11 12 0
-12 8 0
-12 11 0
-13 2 0
-3 -10 0
-2 -9 0
-3 -1 0
-14 -2 0
-5 -2 0
10 -12 0
2 -6 0
-11 -9 0
13 -7 0
-4 -3 0
-3 6 0
9 14 0
11 3 0
-2 -3 0
1 8 0
-5 -15 0
-15 -14 0
1 4 0
10 -13 0
-1 -13 0
-6 4 0
-1 -6 0
9 11 0
7 -1 0
-4 10 0
9 -14 0
-9 -8 0
-5 -15 0
-1 -3 0
-8 10 0
-7 -13 0
-10 15 0
-11 10 0
-15 -10 0
8 1 0
-5 6 0
