c PROBLEM_015_070_28  vars=15  clausulas=70  k=2
p cnf 15 70
8 -10 0
-13 9 0
-8 6 0
11 15 0
-7 6 0
-14 -6 0
-9 -1 0
8 2 0
6 9 0
15 -2 0
8 13 0
15 -4 0
-3 2 0
9 13 0
-8 -1 0
10 -7 0
3 12 0
2 14 0
-11 4 0
3 -7 0
-8 -2 0
-3 -5 0
-8 11 0
-8 7 0
-7 11 0
-5 -13 0
-15 4 0
-15 -10 0
13 2 0
15 6 0
-5 14 0
-7 13 0
7 -9 0
-9 5 0
-4 8 0
-7 6 0
7 -14 0
13 -15 0
4 9 0
-1 -3 0
-5 -15 0
12 6 0
12 4 0
-11 -7 0
-15 2 0
14 -8 0
-5 -1 0
-5 7 0
-1 12 0
-13 15 0
-9 8 0
8 4 0
-10 4 0
6 -2 0
-2 6 0
6 -14 0
3 11 0
7 -5 0
-15 -5 0
-13 4 0
-4 -2 0
-1 15 0
-6 -10 0
-13 -14 0
9 -3 0
-11 14 0
-8 -5 0
14 -11 0
8 -7 0
-10 -15 0
