c PROBLEM_015_070_44  vars=15  clausulas=70  k=2
p cnf 15 70
-12 -2 0
9 -7 0
-9 -11 0
14 13 0
3 1 0
5 -8 0
2 5 0
-13 11 0
14 -10 0
3 6 0
13 -15 0
-8 -15 0
-1 13 0
11 -9 0
6 14 0
-12 -4 0
-4 -14 0
4 2 0
-12 2 0
2 -11 0
-10 -2 0
5 -4 0
-15 -11 0
-2 11 0
-8 -5 0
-1 -11 0
-9 -4 0
12 -4 0
-6 10 0
-11 5 0
-14 -9 0
-12 5 0
-11 5 0
-12 -5 0
5 13 0
1 10 0
6 5 0
-1 -6 0
14 11 0
12 -15 0
2 5 0
-8 -2 0
2 -15 0
-5 4 0
6 4 0
1 -2 0
1 12 0
15 1 0
-10 -1 0
7 -6 0
-8 9 0
-13 3 0
-13 5 0
-14 13 0
-5 4 0
-7 3 0
-4 12 0
-9 4 0
7 -12 0
-3 9 0
13 -15 0
-14 3 0
-8 -14 0
10 -12 0
10 -4 0
2 -13 0
5 4 0
-11 -12 0
4 -10 0
14 -10 0
