c PROBLEM_015_070_26  vars=15  clausulas=70  k=2
p cnf 15 70
-11 14 0
2 -9 0
-10 12 0
-7 2 0
6 -8 0
-1 -9 0
-5 -6 0
3 2 0
-8 -2 0
4 8 0
6 -7 0
-10 13 0
14 2 0
14 3 0
-12 10 0
7 -8 0
-12 -11 0
3 -2 0
-1 3 0
-11 8 0
8 2 0
-15 -7 0
-6 2 0
-2 9 0
-8 -6 0
14 2 0
9 -15 0
-10 7 0
-5 -14 0
3 7 0
6 7 0
12 -1 0
-3 8 0
-15 -1 0
12 10 0
7 -2 0
-5 -4 0
4 12 0
11 -8 0
7 -3 0
-6 -12 0
-9 15 0
-8 -5 0
-3 -8 0
9 1 0
-14 7 0
15 11 0
-5 11 0
2 12 0
11 1 0
4 -3 0
8 12 0
-13 -12 0
-3 -1 0
5 -13 0
-4 9 0
9 -6 0
-9 1 0
-10 -14 0
-11 -5 0
12 2 0
9 15 0
1 15 0
7 -15 0
12 9 0
-10 4 0
-8 1 0
-11 13 0
-11 -5 0
-9 11 0
