c PROBLEM_015_070_47  vars=15  clausulas=70  k=2
p cnf 15 70
2 8 0
-4 -7 0
15 -3 0
-4 14 0
14 -15 0
-11 8 0
10 -9 0
-14 1 0
3 -12 0
-3 -14 0
-3 -15 0
-13 -2 0
2 11 0
4 -11 0
10 -5 0
-12 5 0
8 3 0
-15 -2 0
7 12 0
8 -4 0
-10 8 0
-4 -6 0
13 1 0
-3 8 0
10 -2 0
-14 12 0
-2 -14 0
-15 9 0
-6 -1 0
8 -2 0
3 -1 0
-2 4 0
12 -13 0
-2 15 0
-12 -9 0
-3 13 0
15 11 0
11 14 0
-15 -11 0
-12 -9 0
12 -4 0
6 1 0
-8 15 0
-14 -11 0
2 -6 0
-14 11 0
-14 -9 0
-11 15 0
3 2 0
13 15 0
-10 8 0
-8 -9 0
2 -7 0
4 -5 0
-4 6 0
14 -8 0
-2 8 0
3 -10 0
2 -13 0
14 13 0
-7 14 0
-12 -11 0
12 1 0
9 2 0
-15 -5 0
7 4 0
7 -11 0
-11 -13 0
15 -11 0
-1 -3 0
