c PROBLEM_015_070_35  vars=15  clausulas=70  k=2
p cnf 15 70
-10 12 0
1 -9 0
5 -8 0
12 -14 0
1 -14 0
-12 13 0
12 -14 0
-4 7 0
6 4 0
9 4 0
-15 -11 0
-1 7 0
3 5 0
-10 7 0
4 -15 0
2 -8 0
15 8 0
-5 4 0
10 -1 0
-8 -14 0
8 -11 0
-7 -2 0
11 2 0
-12 13 0
-5 4 0
3 -8 0
1 3 0
4 6 0
12 2 0
7 -2 0
5 6 0
-4 13 0
-9 -8 0
-1 4 0
14 -11 0
2 7 0
5 -6 0
-2 -9 0
5 -4 0
-14 -2 0
8 -9 0
1 9 0
-8 14 0
-8 -14 0
-8 -14 0
6 -5 0
-14 -4 0
-4 -2 0
-15 3 0
-7 -5 0
-1 11 0
1 7 0
5 10 0
-10 4 0
6 -9 0
-9 -1 0
3 7 0
-6 8 0
-13 -7 0
-10 -15 0
-3 13 0
-7 14 0
-4 -13 0
12 3 0
15 -11 0
-10 13 0
13 9 0
3 -15 0
1 -13 0
3 9 0
