c PROBLEM_040_060_37  vars=40  clausulas=60  k=2
p cnf 40 60
-7 34 0
35 12 0
34 -26 0
-29 1 0
14 -35 0
-18 -13 0
-9 10 0
16 -28 0
39 20 0
32 25 0
39 -35 0
12 32 0
-14 -13 0
-26 35 0
16 27 0
-7 -24 0
-8 -21 0
-35 10 0
17 38 0
-9 -15 0
-1 19 0
-22 -39 0
-32 -35 0
-20 -4 0
-25 19 0
-2 -30 0
-8 -10 0
-13 35 0
27 -17 0
-29 -10 0
-11 22 0
8 40 0
16 5 0
-18 34 0
34 -35 0
38 -9 0
-10 26 0
22 -14 0
-12 29 0
15 34 0
2 -18 0
-36 -14 0
-28 -1 0
-16 -6 0
-38 -29 0
22 33 0
12 -39 0
36 -26 0
20 3 0
-29 -23 0
-12 37 0
-5 33 0
-25 35 0
21 40 0
-28 -30 0
-36 31 0
-34 -18 0
-29 27 0
-1 11 0
35 -23 0
