c PROBLEM_040_060_25  vars=40  clausulas=60  k=2
p cnf 40 60
-32 -30 0
-17 -21 0
-24 36 0
15 -30 0
-20 1 0
-3 28 0
19 18 0
-9 -31 0
3 -28 0
-30 -12 0
32 -8 0
2 -22 0
14 -11 0
-32 -9 0
10 25 0
-34 29 0
23 20 0
20 7 0
-32 11 0
-21 40 0
29 -35 0
18 -13 0
9 29 0
11 -35 0
36 -20 0
16 -5 0
-30 21 0
-40 23 0
-29 -23 0
18 -15 0
-21 17 0
37 -26 0
-21 17 0
-5 -4 0
-33 21 0
19 10 0
39 20 0
7 -15 0
24 12 0
18 6 0
-38 32 0
-1 16 0
-26 16 0
-14 -21 0
40 -6 0
15 10 0
37 -9 0
8 -33 0
15 -10 0
11 25 0
-22 2 0
25 -38 0
36 -13 0
-10 17 0
-27 -10 0
37 -27 0
-29 -10 0
-26 -18 0
-6 1 0
4 -9 0
