c PROBLEM_040_060_35  vars=40  clausulas=60  k=2
p cnf 40 60
31 8 0
14 -5 0
-32 -3 0
17 14 0
-38 36 0
-35 13 0
4 -36 0
-34 -13 0
-8 -10 0
-33 28 0
19 -26 0
-8 -23 0
-6 37 0
-21 9 0
8 -3 0
-21 23 0
12 -2 0
-16 -22 0
37 -12 0
-40 31 0
4 12 0
-25 -22 0
-3 -24 0
-25 29 0
-12 1 0
37 7 0
-21 29 0
32 37 0
31 30 0
-30 -35 0
26 35 0
-18 28 0
-14 24 0
23 -1 0
-23 35 0
14 10 0
-7 -33 0
21 33 0
22 -23 0
-36 20 0
-27 -21 0
20 -4 0
-40 -33 0
-32 18 0
40 -36 0
-15 -30 0
-9 6 0
-5 34 0
37 40 0
11 -28 0
34 15 0
-17 -7 0
-3 -26 0
-7 -2 0
23 -37 0
37 20 0
17 15 0
39 -25 0
16 -4 0
-32 -8 0
