c PROBLEM_040_060_28  vars=40  clausulas=60  k=2
p cnf 40 60
-20 25 0
11 -4 0
-10 -24 0
24 11 0
39 -36 0
2 8 0
-25 33 0
10 -25 0
20 25 0
5 -24 0
37 -8 0
-21 25 0
15 3 0
-12 -10 0
26 28 0
-37 39 0
33 -9 0
11 33 0
-8 19 0
8 -21 0
35 -36 0
-6 9 0
19 -38 0
-22 30 0
31 40 0
7 -23 0
19 24 0
-14 5 0
1 -25 0
16 9 0
26 -6 0
32 21 0
-22 12 0
21 -29 0
2 -12 0
-28 -32 0
-15 35 0
38 37 0
24 -5 0
40 29 0
-25 34 0
-28 32 0
-18 -40 0
18 -17 0
16 -17 0
25 16 0
18 34 0
-30 -6 0
34 -28 0
20 37 0
27 -38 0
-40 13 0
-21 -1 0
-5 -12 0
3 7 0
-21 29 0
-11 29 0
-13 19 0
10 -31 0
18 -21 0
