c PROBLEM_040_060_38  vars=40  clausulas=60  k=2
p cnf 40 60
38 -13 0
14 21 0
-36 37 0
-1 -36 0
6 2 0
-37 20 0
2 16 0
-4 -39 0
-9 23 0
-6 40 0
26 32 0
29 28 0
-6 -16 0
33 14 0
-14 -23 0
-22 12 0
17 5 0
18 -9 0
-19 -21 0
27 -20 0
-38 -24 0
-17 35 0
-8 3 0
-2 -13 0
-20 6 0
28 -11 0
27 19 0
-4 -8 0
32 -28 0
-21 -2 0
36 -13 0
-17 -9 0
-10 21 0
33 24 0
-24 3 0
26 -3 0
31 -8 0
-32 15 0
21 38 0
-30 -14 0
6 7 0
-32 39 0
25 26 0
33 11 0
17 -1 0
-20 13 0
24 11 0
32 22 0
-34 -40 0
27 -14 0
-15 13 0
1 17 0
-39 -28 0
12 20 0
1 25 0
-40 -8 0
-24 -37 0
-26 -35 0
36 -35 0
-33 -31 0
