c PROBLEM_040_060_15  vars=40  clausulas=60  k=2
p cnf 40 60
-18 -8 0
38 -11 0
-32 29 0
-36 34 0
12 -22 0
-8 27 0
40 -4 0
16 5 0
-20 -27 0
-39 13 0
3 32 0
-7 -23 0
-34 32 0
11 -38 0
21 17 0
-9 1 0
1 -5 0
-28 10 0
6 -14 0
28 -38 0
34 -13 0
40 -37 0
-37 11 0
4 -35 0
4 -12 0
11 -8 0
26 -4 0
-9 -4 0
30 28 0
33 25 0
35 8 0
-7 3 0
-37 36 0
20 -38 0
-3 -13 0
15 -33 0
26 12 0
21 -23 0
-36 9 0
-18 -25 0
34 19 0
-23 35 0
-35 3 0
39 4 0
15 21 0
-9 14 0
32 23 0
32 -15 0
18 -15 0
27 -2 0
12 20 0
-24 -31 0
36 14 0
-20 14 0
27 -6 0
-25 -22 0
9 26 0
17 -9 0
-7 -5 0
19 29 0
