c PROBLEM_040_060_24  vars=40  clausulas=60  k=2
p cnf 40 60
30 -31 0
28 -31 0
-18 -11 0
-6 30 0
-9 5 0
-8 -17 0
3 19 0
39 19 0
4 27 0
-24 26 0
-22 -13 0
-37 -4 0
-10 -2 0
17 -2 0
-23 -29 0
-30 17 0
16 -34 0
25 37 0
27 16 0
-19 -8 0
-24 25 0
-11 -14 0
-15 -40 0
-3 4 0
-6 -27 0
-3 20 0
40 -38 0
-23 21 0
7 -9 0
28 -31 0
-22 34 0
34 19 0
-30 7 0
-4 27 0
-32 14 0
34 6 0
33 5 0
40 -31 0
39 -10 0
-11 -28 0
26 7 0
-12 20 0
14 -1 0
26 38 0
-23 12 0
-35 14 0
8 7 0
22 -10 0
-37 36 0
-40 37 0
28 -25 0
-17 28 0
-31 -35 0
13 -18 0
-30 -13 0
9 -40 0
15 -6 0
2 5 0
-18 -27 0
-37 29 0
