c PROBLEM_040_060_05  vars=40  clausulas=60  k=2
p cnf 40 60
1 -32 0
-10 37 0
3 -16 0
33 11 0
1 32 0
40 24 0
-7 -3 0
40 -27 0
23 25 0
-39 -20 0
-32 -33 0
9 24 0
-37 14 0
-30 -25 0
29 -13 0
15 4 0
10 -30 0
-13 38 0
-26 6 0
8 -35 0
-35 18 0
-9 35 0
-39 -2 0
15 38 0
5 -22 0
-25 20 0
-32 22 0
1 33 0
-37 18 0
32 14 0
-24 -8 0
31 38 0
18 7 0
-31 15 0
-8 -18 0
-21 10 0
31 -25 0
-18 -28 0
-18 25 0
14 -18 0
30 32 0
-32 39 0
3 6 0
-8 -5 0
-18 -32 0
-32 -39 0
24 19 0
-28 8 0
-30 27 0
18 8 0
29 24 0
10 -40 0
11 -12 0
-16 -8 0
-17 3 0
16 36 0
11 21 0
-20 23 0
-10 -20 0
-35 -34 0
