c PROBLEM_040_060_44  vars=40  clausulas=60  k=2
p cnf 40 60
-28 -20 0
19 38 0
-25 -7 0
7 -16 0
38 4 0
-5 -21 0
21 27 0
2 -29 0
1 -37 0
17 -40 0
-23 4 0
13 -32 0
-31 25 0
20 17 0
40 -19 0
9 10 0
39 -29 0
22 36 0
-23 15 0
2 -6 0
4 -8 0
-18 5 0
9 -6 0
6 -11 0
-12 23 0
4 10 0
35 -30 0
3 24 0
-26 22 0
17 11 0
-34 -31 0
-28 26 0
-35 -2 0
13 -14 0
19 -35 0
38 21 0
-2 33 0
13 -11 0
-22 19 0
-38 19 0
-34 30 0
-25 31 0
-10 37 0
19 -39 0
22 -21 0
-5 -14 0
38 -3 0
38 39 0
-30 -5 0
31 -25 0
-39 3 0
37 -13 0
-31 -18 0
-18 9 0
23 3 0
4 9 0
-25 -12 0
32 -27 0
-32 18 0
-36 1 0
