c PROBLEM_040_060_13  vars=40  clausulas=60  k=2
p cnf 40 60
39 3 0
20 21 0
32 17 0
-20 -3 0
-8 -9 0
13 5 0
30 34 0
-22 1 0
19 22 0
-34 5 0
-16 30 0
-16 3 0
10 -14 0
-31 26 0
-14 16 0
-14 -24 0
13 29 0
38 -14 0
-5 -30 0
-32 37 0
8 25 0
22 -27 0
-33 -38 0
14 21 0
-29 -18 0
22 -9 0
32 2 0
-30 -14 0
-15 18 0
28 -24 0
-1 -4 0
11 26 0
16 7 0
24 -32 0
-23 9 0
-36 -15 0
-13 29 0
-37 -13 0
2 -10 0
-10 -23 0
-6 4 0
-11 19 0
19 40 0
14 16 0
36 9 0
9 -33 0
35 -17 0
-11 8 0
15 19 0
26 -20 0
-31 -3 0
-17 6 0
-9 -12 0
-24 20 0
-3 4 0
-12 39 0
-19 -7 0
39 35 0
39 -37 0
16 24 0
