c PROBLEM_040_060_32  vars=40  clausulas=60  k=2
p cnf 40 60
1 -8 0
26 19 0
3 13 0
-38 -11 0
-9 4 0
-14 -2 0
28 35 0
39 7 0
39 -20 0
-38 -12 0
-31 37 0
-28 24 0
7 36 0
4 26 0
-33 -17 0
25 -40 0
14 -23 0
-36 21 0
29 2 0
5 29 0
33 27 0
40 -10 0
-5 30 0
8 -38 0
36 33 0
30 -36 0
-13 27 0
-9 2 0
-39 -6 0
18 34 0
-11 -18 0
-25 -35 0
27 14 0
-17 5 0
14 22 0
19 -17 0
-32 -4 0
-13 -11 0
34 -6 0
-8 21 0
-23 -20 0
11 10 0
38 -23 0
14 38 0
14 -22 0
-31 5 0
-7 3 0
15 -35 0
-30 7 0
8 38 0
11 -36 0
-40 -17 0
40 31 0
-18 -10 0
11 27 0
12 -25 0
-14 -16 0
-34 11 0
-2 36 0
20 -23 0
