c PROBLEM_040_060_34  vars=40  clausulas=60  k=2
p cnf 40 60
-23 -24 0
12 33 0
25 3 0
23 -9 0
-13 29 0
20 30 0
-7 -28 0
22 35 0
12 16 0
-26 -18 0
9 24 0
37 24 0
40 -14 0
-7 -29 0
-4 36 0
25 40 0
10 37 0
-18 35 0
-10 -9 0
29 -8 0
38 -10 0
2 28 0
33 -17 0
-9 32 0
-12 -24 0
26 1 0
-25 -18 0
-6 -32 0
-39 -26 0
7 -14 0
21 22 0
-15 -30 0
-32 -21 0
14 24 0
4 23 0
15 -20 0
-9 14 0
-35 24 0
-10 17 0
-5 -13 0
8 40 0
-19 -6 0
30 -37 0
16 -36 0
-36 -1 0
27 -23 0
2 38 0
-13 15 0
12 19 0
-19 5 0
16 -2 0
3 -18 0
40 38 0
23 -28 0
-31 27 0
28 2 0
17 6 0
29 33 0
-34 -11 0
-39 -37 0
