c PROBLEM_040_060_31  vars=40  clausulas=60  k=2
p cnf 40 60
-29 26 0
-18 -40 0
17 1 0
32 -39 0
-32 34 0
5 37 0
32 -6 0
-4 -31 0
-18 15 0
25 -40 0
-33 20 0
-4 -2 0
-6 -25 0
31 37 0
29 2 0
35 -36 0
-23 -38 0
-30 29 0
-30 35 0
3 -39 0
-15 38 0
-34 -21 0
26 -8 0
13 39 0
39 -14 0
25 -21 0
-34 -24 0
-20 -13 0
-18 1 0
-36 -30 0
8 -38 0
-10 35 0
6 31 0
-1 -5 0
7 -6 0
-33 -28 0
-13 14 0
-37 3 0
18 -27 0
35 -24 0
-5 16 0
-18 -33 0
34 9 0
-39 22 0
14 -13 0
-15 -19 0
-5 21 0
13 -19 0
18 22 0
-26 -23 0
-17 16 0
3 -14 0
-10 37 0
14 15 0
5 11 0
12 27 0
1 -28 0
-27 3 0
7 24 0
-33 -38 0
