c PROBLEM_040_060_36  vars=40  clausulas=60  k=2
p cnf 40 60
-7 22 0
-18 -6 0
-16 -18 0
-25 10 0
10 -11 0
33 -31 0
18 16 0
-18 -20 0
-39 -7 0
-25 -33 0
-6 -23 0
19 23 0
-16 -2 0
-40 17 0
-17 8 0
6 -29 0
34 -40 0
-31 40 0
36 -16 0
-9 -10 0
-26 -21 0
-40 19 0
-14 4 0
-6 -16 0
-38 23 0
27 28 0
29 -2 0
20 -19 0
-24 20 0
37 -30 0
15 6 0
21 -9 0
2 -4 0
-3 35 0
-8 -15 0
-19 10 0
-5 -40 0
36 -3 0
-31 -34 0
28 5 0
-40 -9 0
-22 40 0
-26 -19 0
32 24 0
30 22 0
-3 -6 0
33 -31 0
-35 -3 0
-5 22 0
8 -28 0
34 -23 0
27 24 0
-17 8 0
-20 -14 0
-34 -27 0
13 12 0
-38 -5 0
28 3 0
17 -34 0
1 20 0
