c PROBLEM_040_060_19  vars=40  clausulas=60  k=2
p cnf 40 60
-24 7 0
-18 -39 0
-28 -9 0
-2 -3 0
-22 -34 0
-23 -26 0
-21 -6 0
40 -7 0
-21 29 0
-36 29 0
-26 -21 0
-1 -18 0
-26 -27 0
-8 -32 0
11 -14 0
-31 -5 0
2 9 0
38 1 0
33 -34 0
39 -11 0
7 19 0
-39 2 0
-22 29 0
37 -39 0
-2 7 0
-22 -24 0
37 12 0
-10 -36 0
33 -19 0
38 23 0
-2 33 0
32 4 0
-20 14 0
-20 5 0
-6 -33 0
8 7 0
-27 -31 0
-31 16 0
11 -10 0
1 -13 0
-26 -27 0
35 -34 0
-17 -11 0
17 -37 0
1 28 0
13 -15 0
35 10 0
-27 3 0
8 25 0
-16 35 0
-23 3 0
23 32 0
-1 29 0
-28 39 0
24 37 0
-9 -3 0
-2 34 0
-30 19 0
39 -27 0
-22 -20 0
