c PROBLEM_040_060_23  vars=40  clausulas=60  k=2
p cnf 40 60
33 -10 0
39 -13 0
-34 4 0
32 17 0
-9 -17 0
2 6 0
-26 -8 0
26 -9 0
30 -28 0
-5 -26 0
39 4 0
8 -2 0
-8 -16 0
26 28 0
-14 16 0
-33 32 0
-6 -15 0
-24 22 0
-38 -8 0
15 8 0
-15 13 0
7 -19 0
-31 -11 0
6 -25 0
-2 -4 0
29 20 0
27 -37 0
-36 5 0
32 -14 0
3 -35 0
30 -23 0
26 -40 0
-3 -11 0
-10 -31 0
15 9 0
5 -34 0
-23 3 0
-28 -15 0
21 33 0
36 40 0
-35 -15 0
-22 18 0
-12 -31 0
-33 39 0
-10 -37 0
-26 34 0
-20 10 0
6 -17 0
-35 34 0
-38 -17 0
13 31 0
-11 -22 0
-4 14 0
-12 10 0
31 14 0
29 -40 0
-20 24 0
-33 -6 0
-3 24 0
-1 34 0
