c PROBLEM_040_060_26  vars=40  clausulas=60  k=2
p cnf 40 60
37 4 0
19 -34 0
-18 28 0
31 -39 0
25 -2 0
-24 -10 0
-12 -3 0
-32 -19 0
-34 38 0
-31 -17 0
-37 17 0
6 20 0
2 25 0
-22 -28 0
-12 10 0
-8 27 0
-35 -1 0
19 5 0
21 26 0
21 -23 0
-4 28 0
36 11 0
-6 16 0
-28 32 0
19 -7 0
31 -24 0
-33 18 0
34 -7 0
29 30 0
40 -2 0
-9 -36 0
-30 32 0
21 35 0
-39 30 0
10 38 0
14 10 0
-23 -5 0
3 -4 0
36 16 0
31 -7 0
3 -30 0
27 21 0
16 36 0
-33 18 0
-17 32 0
26 -38 0
35 -4 0
-21 -20 0
28 -14 0
27 22 0
35 -40 0
-34 -40 0
-8 -40 0
-2 -5 0
39 -6 0
-32 -34 0
-13 40 0
-15 -3 0
23 -30 0
-8 -21 0
