c PROBLEM_040_060_22  vars=40  clausulas=60  k=2
p cnf 40 60
-13 26 0
-20 26 0
-17 11 0
20 -30 0
1 4 0
38 31 0
-7 26 0
19 -11 0
8 39 0
1 -29 0
-35 27 0
-16 -25 0
16 6 0
-17 25 0
17 -24 0
20 18 0
30 37 0
-30 -31 0
15 -6 0
10 -21 0
-29 18 0
-19 -15 0
-21 -37 0
29 2 0
-9 -25 0
-1 16 0
13 -36 0
28 29 0
-2 6 0
-4 18 0
4 11 0
37 39 0
-37 22 0
38 -8 0
37 13 0
34 -26 0
17 1 0
40 -17 0
-3 -32 0
23 -34 0
21 -17 0
-29 -4 0
-8 1 0
36 34 0
24 4 0
-2 -5 0
14 -16 0
25 -20 0
31 -21 0
16 6 0
32 16 0
-29 37 0
-22 27 0
38 -32 0
-19 -39 0
2 -6 0
-5 -30 0
12 33 0
-25 40 0
10 24 0
