c PROBLEM_040_060_43  vars=40  clausulas=60  k=2
p cnf 40 60
31 -35 0
-30 9 0
-31 -25 0
-3 -19 0
20 4 0
-21 -19 0
-8 -24 0
-37 -13 0
-6 -28 0
13 35 0
40 32 0
24 -4 0
-5 24 0
39 23 0
4 13 0
-17 -33 0
-2 -27 0
-23 8 0
-19 18 0
-23 21 0
-26 10 0
-12 -19 0
-14 -24 0
21 -28 0
40 18 0
35 3 0
-25 -31 0
-34 -12 0
35 34 0
-21 27 0
-1 -28 0
-26 -22 0
17 4 0
-29 -35 0
38 -17 0
-33 -20 0
39 -36 0
-29 19 0
6 -27 0
35 9 0
-36 -13 0
-39 25 0
-21 -30 0
-1 -37 0
10 -28 0
-26 -11 0
13 6 0
-23 -4 0
12 19 0
-14 -36 0
38 20 0
32 -2 0
-3 -20 0
15 29 0
27 -22 0
7 23 0
-37 -32 0
-3 16 0
-34 1 0
18 13 0
