c PROBLEM_040_060_20  vars=40  clausulas=60  k=2
p cnf 40 60
7 -30 0
21 -37 0
29 32 0
19 -40 0
-16 -27 0
26 35 0
-12 -10 0
-37 30 0
17 16 0
-22 -23 0
-36 -28 0
35 8 0
-33 9 0
-31 -26 0
-29 36 0
38 23 0
-32 -33 0
31 -6 0
40 -21 0
-30 8 0
17 -8 0
8 -22 0
-22 12 0
-9 -34 0
-9 34 0
21 40 0
11 25 0
6 -17 0
34 -26 0
39 36 0
-28 14 0
-28 18 0
-4 3 0
-22 -21 0
-17 9 0
-22 38 0
-6 21 0
21 -20 0
5 -18 0
-27 -21 0
-5 16 0
38 27 0
-6 -21 0
-8 -12 0
-15 -14 0
-36 -20 0
30 -20 0
21 -4 0
31 -7 0
-5 36 0
32 -1 0
-15 19 0
26 -28 0
-19 35 0
-12 -8 0
24 11 0
-9 18 0
28 -36 0
13 7 0
-2 -4 0
