c PROBLEM_040_060_11  vars=40  clausulas=60  k=2
p cnf 40 60
-18 23 0
-6 -40 0
-10 25 0
-20 -2 0
9 33 0
-21 31 0
39 -31 0
8 26 0
-40 -25 0
2 -10 0
28 13 0
-24 38 0
-26 -35 0
34 1 0
-17 -19 0
-14 2 0
-13 3 0
-39 -2 0
23 27 0
-4 -28 0
-24 18 0
-26 30 0
-33 -25 0
38 -33 0
-27 -33 0
-15 -21 0
-14 -30 0
-39 -37 0
24 -4 0
-22 4 0
32 23 0
-22 -26 0
35 -36 0
-40 23 0
23 -13 0
16 26 0
30 -7 0
-2 -38 0
-32 -3 0
20 32 0
-10 -30 0
-20 -4 0
38 40 0
10 -6 0
10 -36 0
-6 -23 0
-35 11 0
-4 -16 0
-29 5 0
-21 22 0
-7 -27 0
-12 34 0
-30 9 0
-3 5 0
7 -38 0
-20 29 0
12 26 0
-26 39 0
-16 20 0
-1 -34 0
