c PROBLEM_040_060_03  vars=40  clausulas=60  k=2
p cnf 40 60
30 29 0
4 -33 0
-28 26 0
-20 -21 0
4 -39 0
8 19 0
32 16 0
-2 -10 0
-2 31 0
-22 -33 0
38 39 0
31 8 0
19 -3 0
-17 -27 0
-13 36 0
25 -16 0
-5 6 0
21 31 0
35 -12 0
13 27 0
16 -2 0
18 -12 0
-33 11 0
-37 10 0
30 25 0
-2 24 0
-1 -38 0
-40 -27 0
-22 -17 0
13 -20 0
9 24 0
20 2 0
-5 -7 0
32 30 0
13 -16 0
28 -29 0
16 36 0
40 14 0
-1 8 0
11 -4 0
23 -8 0
30 -33 0
31 -19 0
-23 26 0
21 -27 0
5 -20 0
8 -4 0
22 -19 0
-29 39 0
12 24 0
14 33 0
7 9 0
40 4 0
-9 20 0
-15 -11 0
32 -5 0
-30 16 0
-33 1 0
-11 17 0
-39 -34 0
