c PROBLEM_040_060_50  vars=40  clausulas=60  k=2
p cnf 40 60
-7 -29 0
-22 -12 0
-13 33 0
6 4 0
13 3 0
38 11 0
-31 -17 0
7 -28 0
-9 -18 0
-7 21 0
-6 14 0
22 9 0
38 2 0
20 -10 0
-32 38 0
-1 -30 0
-26 24 0
-3 19 0
21 2 0
35 10 0
26 33 0
1 -36 0
-27 -16 0
-38 -25 0
-37 14 0
-28 22 0
30 -7 0
15 34 0
-16 20 0
27 40 0
7 -6 0
19 -6 0
-5 -23 0
-30 -39 0
-35 -9 0
37 8 0
-36 -16 0
38 -20 0
-10 -5 0
-9 3 0
-39 -15 0
-3 23 0
31 -9 0
-18 -2 0
-30 -24 0
-24 25 0
29 24 0
19 -12 0
39 -2 0
-36 31 0
32 15 0
33 19 0
36 -27 0
-20 -28 0
17 1 0
31 -7 0
-29 -21 0
9 25 0
12 37 0
-24 -23 0
