c PROBLEM_070_080_23  vars=70  clausulas=80  k=2
p cnf 70 80
-66 43 0
6 -49 0
32 26 0
53 -39 0
38 -41 0
14 55 0
-65 -53 0
23 -3 0
30 -29 0
-56 8 0
43 56 0
33 -49 0
55 -35 0
-56 -52 0
-21 67 0
70 -25 0
27 39 0
67 41 0
15 18 0
45 -67 0
39 -49 0
36 -50 0
32 51 0
24 -53 0
8 -31 0
-37 24 0
-10 18 0
-60 5 0
-31 43 0
-30 53 0
-41 -70 0
7 -38 0
57 62 0
12 57 0
35 -22 0
45 39 0
20 -44 0
-63 2 0
7 56 0
44 22 0
-37 -49 0
38 -43 0
-48 55 0
49 46 0
69 27 0
-53 64 0
-31 -29 0
15 34 0
-4 -64 0
-29 2 0
12 -13 0
-61 -36 0
19 -28 0
-21 59 0
-40 19 0
48 15 0
56 16 0
17 40 0
-45 18 0
-68 67 0
14 -58 0
-25 59 0
31 -15 0
-9 30 0
-11 -70 0
-47 -28 0
-66 17 0
-33 42 0
-54 -25 0
32 -69 0
-62 21 0
-37 -3 0
-29 33 0
16 14 0
52 3 0
-21 -51 0
24 -47 0
1 -23 0
-22 15 0
-5 32 0
