c PROBLEM_070_080_08  vars=70  clausulas=80  k=2
p cnf 70 80
42 68 0
-11 31 0
-61 -21 0
-54 63 0
19 -22 0
32 -10 0
62 -20 0
5 53 0
-43 -1 0
-65 -44 0
26 37 0
45 -64 0
-12 -33 0
20 42 0
-24 -50 0
52 13 0
-55 -29 0
-54 -67 0
-18 33 0
8 34 0
54 67 0
56 -26 0
11 42 0
-12 70 0
38 -24 0
-55 -5 0
-4 -14 0
-44 61 0
-2 58 0
-70 -47 0
-10 -49 0
-6 8 0
-37 70 0
-53 -47 0
35 -45 0
-10 -54 0
29 -36 0
48 -19 0
48 17 0
-54 67 0
30 13 0
65 -20 0
-7 34 0
-9 -53 0
66 -52 0
28 -8 0
-57 -16 0
20 -60 0
44 64 0
18 60 0
7 -1 0
68 -57 0
26 -15 0
3 -69 0
17 3 0
59 -35 0
63 49 0
27 -61 0
51 -47 0
53 21 0
-11 40 0
-34 -46 0
-46 22 0
33 -55 0
-7 33 0
-48 23 0
30 -34 0
-68 -3 0
-49 -50 0
12 38 0
16 -69 0
69 65 0
39 34 0
20 41 0
-39 -25 0
-9 38 0
20 -22 0
28 7 0
-54 -17 0
16 2 0
