c PROBLEM_070_080_09  vars=70  clausulas=80  k=2
p cnf 70 80
52 22 0
-49 13 0
-38 10 0
-16 50 0
-54 64 0
-36 -64 0
-47 63 0
16 53 0
39 18 0
-65 -69 0
-40 34 0
-13 -8 0
-40 -27 0
-20 5 0
-66 -20 0
50 17 0
55 -37 0
70 -36 0
54 -61 0
-61 52 0
-56 -47 0
-31 -60 0
-62 -65 0
-2 41 0
-24 -43 0
-25 3 0
11 -38 0
-43 -11 0
-57 -55 0
67 -31 0
35 -25 0
-9 -54 0
-49 -30 0
26 -46 0
-54 22 0
-14 25 0
61 -32 0
22 -38 0
-36 49 0
67 65 0
6 -58 0
15 25 0
19 68 0
23 -46 0
-5 17 0
39 -70 0
49 11 0
59 7 0
-2 1 0
4 47 0
-5 15 0
-66 -48 0
-41 -17 0
29 70 0
60 36 0
-8 57 0
-54 68 0
-50 -1 0
6 -1 0
63 17 0
44 22 0
22 -59 0
-12 42 0
-51 -23 0
1 52 0
-13 -21 0
-6 58 0
43 9 0
-39 -57 0
-33 -22 0
-66 47 0
-63 -29 0
-60 -34 0
-51 -29 0
23 -28 0
70 18 0
-9 -29 0
45 -30 0
23 21 0
33 -7 0
