c PROBLEM_070_080_29  vars=70  clausulas=80  k=2
p cnf 70 80
-63 -4 0
28 -16 0
-57 41 0
-17 -32 0
66 50 0
-58 -2 0
-29 -27 0
47 43 0
-27 -13 0
-57 49 0
54 -28 0
-9 -13 0
-17 -11 0
-7 -56 0
67 5 0
8 34 0
38 -49 0
-8 22 0
14 44 0
-50 -37 0
-30 -29 0
-33 -14 0
-65 22 0
7 38 0
53 -29 0
-31 -9 0
-39 -25 0
-6 21 0
68 -48 0
42 -47 0
4 -1 0
10 -32 0
-55 26 0
60 -69 0
-7 61 0
-51 -13 0
1 51 0
63 59 0
8 41 0
62 -57 0
42 18 0
-42 43 0
51 -1 0
66 46 0
-26 33 0
-4 -31 0
35 -65 0
-55 44 0
-65 -27 0
50 -54 0
48 57 0
55 -20 0
46 9 0
40 -47 0
45 -3 0
-54 -1 0
-54 35 0
-38 8 0
-34 -54 0
64 -67 0
34 60 0
2 -41 0
1 -52 0
-23 -27 0
-16 -15 0
-10 -19 0
-12 69 0
-59 65 0
36 -24 0
-30 53 0
-42 -28 0
-69 57 0
-70 32 0
7 61 0
24 -35 0
45 -30 0
4 23 0
17 53 0
-6 -59 0
58 14 0
