c PROBLEM_070_080_06  vars=70  clausulas=80  k=2
p cnf 70 80
-31 12 0
-65 42 0
-8 11 0
50 -56 0
-30 5 0
15 -40 0
-60 -33 0
-50 -6 0
10 -34 0
-10 21 0
31 5 0
41 -61 0
-52 49 0
45 -50 0
4 53 0
39 -8 0
33 -27 0
-20 63 0
-28 43 0
-21 -66 0
45 3 0
53 22 0
65 70 0
31 -65 0
41 -7 0
51 -29 0
-3 6 0
51 25 0
53 67 0
-38 -63 0
-20 -60 0
-46 56 0
-39 -57 0
-46 -51 0
38 41 0
42 37 0
14 32 0
-47 40 0
-21 9 0
-4 67 0
68 -13 0
-54 50 0
59 -55 0
-44 26 0
-33 -14 0
-58 48 0
-62 52 0
55 3 0
17 5 0
26 -36 0
23 -70 0
-13 -2 0
-13 64 0
-51 -37 0
-56 -38 0
-62 -47 0
-30 -58 0
-30 -16 0
-41 -16 0
-35 5 0
51 -21 0
-69 -1 0
36 37 0
-50 56 0
-42 -2 0
22 26 0
24 -48 0
65 6 0
61 39 0
16 9 0
34 40 0
-37 57 0
-41 -18 0
28 44 0
32 -62 0
39 19 0
59 66 0
17 -24 0
29 -33 0
-66 23 0
