c PROBLEM_070_080_11  vars=70  clausulas=80  k=2
p cnf 70 80
52 62 0
58 28 0
-7 40 0
26 -15 0
7 -2 0
-26 44 0
35 -21 0
-15 61 0
37 -31 0
39 -30 0
-70 56 0
-32 29 0
36 -48 0
-27 -1 0
44 63 0
-22 -41 0
40 -28 0
2 8 0
59 15 0
-48 -6 0
26 67 0
39 -54 0
-20 -24 0
20 -54 0
-25 49 0
-28 -52 0
58 -65 0
-61 -46 0
-70 -5 0
-9 -34 0
16 37 0
40 21 0
48 -29 0
68 37 0
-41 54 0
9 -31 0
-55 28 0
69 -4 0
23 -9 0
-32 28 0
-13 33 0
-43 -50 0
-4 19 0
-70 14 0
6 1 0
-68 47 0
-5 28 0
33 36 0
50 -51 0
28 27 0
-56 -64 0
23 -70 0
-22 -39 0
38 -45 0
-53 35 0
26 46 0
39 47 0
35 65 0
-14 -30 0
-67 3 0
-50 11 0
-29 -66 0
35 55 0
58 -66 0
11 47 0
-12 69 0
22 17 0
36 31 0
-60 -28 0
-35 -8 0
13 20 0
18 -61 0
57 -42 0
35 -10 0
34 56 0
-23 55 0
42 -62 0
-20 -7 0
-62 27 0
18 4 0
