c PROBLEM_070_080_21  vars=70  clausulas=80  k=2
p cnf 70 80
29 -21 0
-37 70 0
-63 -57 0
-10 59 0
-60 -52 0
-26 -23 0
-55 -22 0
3 -50 0
38 6 0
-49 11 0
46 37 0
-17 64 0
-13 -36 0
39 27 0
-12 50 0
16 54 0
10 -28 0
42 -53 0
-17 -56 0
-61 -47 0
-26 69 0
64 16 0
-31 -42 0
1 51 0
-67 -46 0
-56 -10 0
-35 20 0
-66 48 0
-27 3 0
-44 -27 0
-56 9 0
-32 -40 0
41 -14 0
-14 51 0
5 1 0
10 45 0
2 42 0
-8 46 0
-2 -69 0
27 -44 0
49 64 0
66 -15 0
-14 57 0
-1 -63 0
-3 -69 0
12 70 0
7 -63 0
-40 -2 0
-38 -3 0
-50 -19 0
-2 -52 0
-38 -24 0
46 1 0
66 1 0
-51 -37 0
28 -58 0
-62 66 0
-35 -61 0
-63 23 0
65 37 0
-34 -61 0
-5 64 0
-25 32 0
-20 -27 0
-2 -12 0
-56 51 0
-68 -61 0
-60 18 0
33 61 0
-66 -15 0
1 31 0
30 18 0
-50 -24 0
7 29 0
31 45 0
22 34 0
70 43 0
4 -59 0
-56 -40 0
36 34 0
