c PROBLEM_070_080_27  vars=70  clausulas=80  k=2
p cnf 70 80
9 45 0
21 -43 0
-24 -32 0
-21 -24 0
27 31 0
-6 -34 0
65 67 0
-53 18 0
-59 63 0
-15 64 0
2 62 0
-35 -42 0
-6 28 0
-4 -40 0
-43 55 0
-25 -48 0
-47 53 0
54 63 0
47 -69 0
10 44 0
53 17 0
29 58 0
-50 43 0
-12 54 0
-32 50 0
70 39 0
-13 -28 0
-29 -59 0
59 17 0
11 27 0
-28 -9 0
4 -40 0
-68 -1 0
10 -25 0
63 -30 0
8 -48 0
-59 57 0
-47 -4 0
51 -35 0
-25 54 0
-5 39 0
-3 2 0
-56 -47 0
1 -35 0
6 -66 0
-2 39 0
50 -9 0
-60 -51 0
1 10 0
-50 56 0
54 -49 0
-51 65 0
-44 22 0
-24 66 0
14 47 0
-61 -41 0
10 -42 0
38 26 0
38 -34 0
-4 -3 0
19 29 0
21 -6 0
-34 -49 0
11 67 0
23 -36 0
-17 -32 0
-24 -49 0
-2 -16 0
31 27 0
18 23 0
31 -50 0
10 -62 0
-35 60 0
52 46 0
-62 2 0
37 -7 0
20 -23 0
65 -59 0
-1 -66 0
-33 -15 0
