c PROBLEM_070_080_34  vars=70  clausulas=80  k=2
p cnf 70 80
-9 33 0
-22 5 0
56 36 0
-42 -38 0
-15 58 0
68 -24 0
-51 -10 0
-57 18 0
54 -18 0
-21 -53 0
-25 1 0
43 66 0
22 24 0
52 31 0
-55 -5 0
-21 -46 0
5 -44 0
-8 17 0
-13 -2 0
-34 -48 0
41 27 0
10 46 0
62 -28 0
10 -63 0
3 -24 0
18 -6 0
-26 -20 0
-59 26 0
35 -6 0
13 61 0
-69 1 0
-1 60 0
43 30 0
-4 11 0
34 -37 0
16 54 0
-29 -3 0
-9 -52 0
7 43 0
-4 68 0
63 29 0
68 -12 0
-39 31 0
5 -67 0
-65 60 0
56 47 0
-62 60 0
14 23 0
-7 -39 0
69 48 0
-64 14 0
-10 -31 0
-19 45 0
27 6 0
-61 -67 0
-54 -41 0
-59 25 0
-56 -20 0
24 -15 0
64 -54 0
53 -55 0
44 -37 0
1 -42 0
-70 8 0
69 -27 0
45 -6 0
30 -10 0
-32 -49 0
8 63 0
57 27 0
64 27 0
-31 -4 0
-20 -37 0
24 17 0
-30 -50 0
-68 -23 0
-40 11 0
-40 -35 0
-37 69 0
-4 -56 0
