c PROBLEM_070_080_14  vars=70  clausulas=80  k=2
p cnf 70 80
46 -66 0
-59 -69 0
34 4 0
-40 15 0
13 62 0
11 23 0
-27 62 0
-50 -44 0
-64 5 0
21 -39 0
-4 15 0
57 -68 0
6 37 0
-38 37 0
6 -10 0
59 2 0
-67 -50 0
-25 7 0
-26 61 0
-33 45 0
-64 -45 0
-54 -57 0
-59 53 0
-41 -16 0
-47 -33 0
-20 19 0
-45 -22 0
-29 -35 0
-43 -19 0
24 -28 0
13 48 0
-31 26 0
41 -12 0
63 2 0
25 -57 0
-22 -63 0
25 70 0
-53 65 0
6 -14 0
12 -58 0
-26 -22 0
-5 51 0
-55 29 0
-48 -29 0
-43 -21 0
23 3 0
-18 44 0
-50 -57 0
54 6 0
-31 -11 0
47 13 0
-28 -10 0
36 55 0
-45 41 0
48 46 0
-56 -65 0
8 16 0
-37 31 0
-39 -13 0
67 -9 0
13 -26 0
-61 31 0
-66 1 0
-36 70 0
-25 -16 0
-52 -40 0
14 42 0
-53 24 0
52 10 0
38 32 0
-58 -54 0
26 60 0
-55 51 0
-3 -68 0
-25 -19 0
-49 -17 0
-70 -64 0
54 21 0
-69 -46 0
11 30 0
