c PROBLEM_070_080_46  vars=70  clausulas=80  k=2
p cnf 70 80
49 45 0
6 35 0
-23 -9 0
-40 68 0
-50 -26 0
36 -4 0
-32 -48 0
-35 -66 0
-57 64 0
4 3 0
48 39 0
-15 -49 0
50 -23 0
67 -53 0
-51 -68 0
32 16 0
-46 -21 0
-9 -4 0
36 22 0
-46 -48 0
29 -59 0
-69 -64 0
-8 55 0
-62 -34 0
30 -70 0
-11 -14 0
-4 31 0
65 51 0
-41 9 0
-24 -46 0
-26 38 0
-10 56 0
20 -17 0
56 35 0
-2 -39 0
-5 16 0
9 -37 0
27 55 0
34 44 0
36 12 0
23 7 0
59 60 0
64 2 0
43 37 0
-34 28 0
-37 11 0
16 -48 0
3 58 0
-53 19 0
3 62 0
13 -69 0
45 61 0
47 -30 0
65 -17 0
66 -52 0
-60 -57 0
15 -41 0
30 -6 0
-39 -18 0
-33 43 0
63 17 0
-60 -11 0
31 -10 0
-64 -70 0
-44 -26 0
-64 61 0
9 -54 0
64 70 0
25 14 0
-4 -21 0
-30 35 0
5 50 0
9 -19 0
1 -24 0
53 22 0
-62 -52 0
57 62 0
39 42 0
-58 -61 0
33 18 0
