c PROBLEM_070_080_20  vars=70  clausulas=80  k=2
p cnf 70 80
62 -69 0
19 -11 0
-64 -49 0
-33 -46 0
3 -52 0
-22 -52 0
58 -68 0
5 -9 0
32 30 0
-28 -45 0
16 -56 0
57 -35 0
28 16 0
65 61 0
-32 15 0
51 -31 0
42 57 0
-44 -15 0
-32 7 0
-4 18 0
13 30 0
-2 44 0
-24 35 0
-21 -10 0
-64 36 0
-31 -56 0
59 -67 0
17 -12 0
23 -4 0
41 69 0
64 41 0
-55 25 0
-1 -27 0
-25 12 0
40 66 0
-11 -26 0
52 -8 0
-5 63 0
15 25 0
11 -23 0
-1 -54 0
37 -50 0
-1 -49 0
-60 -26 0
-42 -37 0
38 19 0
48 -70 0
-19 63 0
-34 60 0
62 46 0
-14 -33 0
-29 -4 0
-19 1 0
54 -50 0
15 -29 0
16 43 0
-24 -65 0
-42 52 0
46 -39 0
-28 -39 0
-40 20 0
54 53 0
-25 -2 0
27 -68 0
12 -32 0
26 23 0
23 -69 0
-26 46 0
-50 -7 0
20 -67 0
25 -28 0
25 -46 0
-3 -43 0
20 -5 0
-32 47 0
12 -24 0
6 -29 0
49 12 0
-30 -38 0
-55 46 0
