c PROBLEM_070_080_31  vars=70  clausulas=80  k=2
p cnf 70 80
-48 -49 0
-19 26 0
24 -69 0
-10 42 0
-36 47 0
18 -5 0
70 -12 0
-65 16 0
-56 39 0
9 6 0
-40 -50 0
59 32 0
28 46 0
1 -37 0
23 -15 0
-68 30 0
-37 -64 0
60 14 0
43 31 0
-11 -43 0
2 14 0
-58 -33 0
-32 62 0
-43 -33 0
-54 41 0
53 49 0
13 -36 0
-1 26 0
-35 25 0
-61 18 0
54 11 0
-34 64 0
52 -46 0
-19 62 0
21 3 0
35 -33 0
3 -59 0
10 48 0
-11 70 0
15 -65 0
-7 -1 0
55 25 0
-42 11 0
38 -48 0
22 -20 0
29 -42 0
17 -28 0
-36 -49 0
-33 -30 0
-8 -70 0
29 3 0
44 -57 0
61 -31 0
63 48 0
54 30 0
23 51 0
-4 -24 0
60 -57 0
-69 -22 0
4 -39 0
-54 5 0
-45 -58 0
-6 -27 0
-11 -60 0
-28 -58 0
-40 59 0
3 38 0
51 9 0
-21 45 0
67 -66 0
30 10 0
5 4 0
-51 14 0
-51 -41 0
-62 43 0
4 -38 0
15 -60 0
-28 -42 0
-37 -60 0
-14 24 0
