c PROBLEM_070_080_04  vars=70  clausulas=80  k=2
p cnf 70 80
-35 15 0
-45 -47 0
21 41 0
-34 -20 0
-4 1 0
32 -5 0
43 67 0
-26 -31 0
14 7 0
34 22 0
21 -30 0
64 -10 0
19 70 0
51 -19 0
53 6 0
-70 -43 0
31 48 0
-49 26 0
-18 17 0
-56 -57 0
-55 20 0
29 25 0
66 20 0
56 -23 0
-41 -40 0
8 7 0
47 36 0
44 46 0
-68 29 0
22 25 0
-41 15 0
42 -2 0
52 12 0
-44 -67 0
4 20 0
10 -17 0
-66 10 0
-4 6 0
62 -22 0
53 27 0
-32 -15 0
3 -20 0
-30 46 0
-28 -24 0
-67 10 0
32 61 0
21 -43 0
11 35 0
-1 -51 0
18 54 0
-56 -45 0
49 -70 0
2 -16 0
-50 -24 0
-33 44 0
-50 -25 0
-57 -55 0
-65 42 0
-9 -55 0
-42 -40 0
-44 61 0
-7 32 0
-35 69 0
-65 -60 0
22 -65 0
22 39 0
-52 14 0
-69 63 0
52 -56 0
-46 -39 0
50 55 0
-11 -15 0
11 33 0
37 33 0
-13 9 0
59 -43 0
60 -43 0
15 8 0
58 5 0
38 7 0
