c PROBLEM_070_080_24  vars=70  clausulas=80  k=2
p cnf 70 80
-34 -64 0
7 -30 0
7 9 0
-45 -62 0
-65 -38 0
19 31 0
-10 -35 0
61 50 0
58 49 0
-46 65 0
15 61 0
69 -52 0
-70 -64 0
59 31 0
-22 -3 0
-7 59 0
7 -49 0
-23 24 0
-70 69 0
-25 -18 0
54 -38 0
-15 -40 0
32 14 0
-48 -68 0
45 58 0
-47 6 0
67 -3 0
-63 28 0
47 42 0
-17 55 0
-32 -22 0
48 16 0
34 24 0
-29 -33 0
24 46 0
5 -40 0
4 -19 0
-53 19 0
47 -10 0
-61 21 0
-40 67 0
12 22 0
-21 41 0
54 57 0
16 -2 0
33 -30 0
65 24 0
4 43 0
-61 -21 0
-13 -22 0
57 56 0
20 -19 0
11 58 0
3 -45 0
65 -50 0
-29 -49 0
-52 70 0
13 23 0
-29 1 0
-5 20 0
55 -36 0
46 55 0
-27 -36 0
29 26 0
11 10 0
39 -44 0
18 -70 0
7 17 0
33 -26 0
14 9 0
-59 -46 0
-66 -45 0
40 -64 0
54 -60 0
-10 -8 0
-11 36 0
30 -35 0
37 51 0
-62 -64 0
-55 -10 0
