c PROBLEM_070_080_05  vars=70  clausulas=80  k=2
p cnf 70 80
10 4 0
27 44 0
64 21 0
2 -1 0
32 18 0
-33 2 0
-13 20 0
54 45 0
65 -41 0
40 12 0
-15 13 0
-20 58 0
-3 11 0
-53 -35 0
37 -31 0
-46 -15 0
9 34 0
-4 70 0
-3 33 0
-33 6 0
-12 -14 0
14 -25 0
-53 -35 0
-7 16 0
-7 31 0
-51 -42 0
66 -5 0
-56 28 0
-37 -70 0
1 54 0
48 -11 0
36 10 0
62 57 0
-61 -68 0
20 -22 0
23 -32 0
-47 -17 0
68 24 0
24 -31 0
11 18 0
-5 -3 0
-26 9 0
61 -4 0
48 20 0
-8 -39 0
69 -38 0
17 -26 0
30 9 0
-17 -68 0
64 36 0
-69 14 0
-18 36 0
16 50 0
28 61 0
59 -66 0
-34 -31 0
17 -24 0
66 -60 0
-22 11 0
70 47 0
33 62 0
-37 35 0
-52 -45 0
-43 -45 0
-52 -63 0
-25 -14 0
65 -7 0
62 55 0
49 19 0
19 24 0
8 -1 0
-67 38 0
-13 -28 0
-57 -49 0
56 29 0
67 -30 0
59 21 0
-59 10 0
58 -12 0
-14 -38 0
