c PROBLEM_070_080_03  vars=70  clausulas=80  k=2
p cnf 70 80
34 56 0
42 -48 0
-55 10 0
-64 16 0
-35 -52 0
-70 -66 0
67 -5 0
48 -55 0
16 -70 0
-3 -56 0
-51 -45 0
-21 62 0
-41 -57 0
15 -8 0
-8 -51 0
40 12 0
20 -16 0
60 -59 0
-6 27 0
50 -17 0
-3 63 0
62 -11 0
31 24 0
29 61 0
-40 -61 0
-57 69 0
-49 -36 0
11 -8 0
32 -17 0
62 -13 0
-37 2 0
6 60 0
38 65 0
32 52 0
-65 68 0
-5 -53 0
-13 -17 0
-39 -12 0
27 -47 0
-6 21 0
6 -63 0
25 30 0
-19 64 0
-19 59 0
-56 -3 0
-62 17 0
-60 -11 0
-41 -43 0
44 19 0
16 -45 0
-39 -28 0
59 -15 0
-54 -42 0
49 46 0
-58 54 0
7 -20 0
29 2 0
41 52 0
-4 -18 0
50 49 0
34 9 0
32 57 0
-1 39 0
-18 51 0
-65 7 0
9 -2 0
19 -34 0
30 -39 0
17 33 0
-48 -64 0
54 -6 0
-12 -28 0
68 14 0
-47 23 0
39 41 0
26 -48 0
70 -17 0
-8 -45 0
-59 -4 0
13 22 0
