c PROBLEM_070_080_40  vars=70  clausulas=80  k=2
p cnf 70 80
-54 -57 0
16 -20 0
-49 52 0
59 -23 0
-44 8 0
39 -28 0
-21 30 0
68 -7 0
-14 -11 0
28 35 0
-31 17 0
27 -11 0
-45 56 0
61 8 0
-10 -15 0
42 -40 0
-42 69 0
-46 -7 0
-15 -50 0
-37 54 0
48 70 0
40 62 0
-20 -40 0
66 19 0
-24 -61 0
-53 50 0
6 48 0
35 66 0
5 -62 0
-53 38 0
-45 -8 0
37 -3 0
-32 -46 0
26 27 0
-15 1 0
8 54 0
-9 -48 0
29 -1 0
-33 -6 0
-1 44 0
36 14 0
-62 -55 0
11 -65 0
-63 50 0
-23 15 0
-67 41 0
26 44 0
-11 55 0
-48 43 0
70 -16 0
55 -9 0
62 -32 0
21 13 0
25 68 0
4 -35 0
19 69 0
54 64 0
-17 -29 0
-58 -16 0
35 34 0
-33 -47 0
55 51 0
58 63 0
12 -22 0
19 -41 0
70 -18 0
-30 -39 0
40 -14 0
-62 5 0
-16 38 0
39 -9 0
-6 36 0
61 12 0
-53 38 0
-57 -25 0
60 12 0
50 -35 0
-63 3 0
-21 -2 0
57 -36 0
