c PROBLEM_070_080_25  vars=70  clausulas=80  k=2
p cnf 70 80
-29 9 0
-58 -8 0
32 59 0
-60 -17 0
19 -70 0
32 48 0
13 -25 0
49 -48 0
-51 -21 0
-19 -55 0
20 31 0
32 -63 0
-2 -5 0
-1 -5 0
-41 8 0
41 66 0
61 14 0
45 40 0
58 -28 0
-30 -68 0
46 31 0
18 8 0
4 36 0
69 -62 0
22 70 0
-50 43 0
-51 64 0
8 56 0
59 9 0
-40 23 0
-46 50 0
50 10 0
24 -17 0
2 26 0
56 45 0
6 52 0
-22 -55 0
35 19 0
-19 -45 0
59 28 0
-54 -10 0
-19 49 0
-13 12 0
2 -53 0
65 9 0
52 38 0
16 -65 0
12 -16 0
56 -35 0
-23 -5 0
31 69 0
-6 -26 0
-47 57 0
-63 -14 0
49 -67 0
47 34 0
-44 7 0
-28 -27 0
-28 -25 0
-26 41 0
52 58 0
13 31 0
-21 -42 0
21 -14 0
26 11 0
-32 57 0
15 32 0
21 62 0
-67 -8 0
37 -44 0
33 51 0
-40 -57 0
34 53 0
-67 25 0
30 -66 0
-16 50 0
59 -3 0
-47 7 0
11 -39 0
65 54 0
