c PROBLEM_070_080_12  vars=70  clausulas=80  k=2
p cnf 70 80
7 46 0
-66 -13 0
-48 -43 0
57 -49 0
-55 -16 0
13 -45 0
-31 4 0
35 10 0
38 65 0
46 30 0
-18 -62 0
44 69 0
18 24 0
-51 42 0
69 1 0
16 10 0
31 -63 0
-53 -67 0
10 49 0
3 51 0
-25 8 0
-25 22 0
-37 33 0
21 -64 0
-49 -57 0
34 9 0
-38 -32 0
-34 -56 0
61 52 0
-20 44 0
-65 -31 0
31 60 0
-67 39 0
23 -32 0
-25 -61 0
60 19 0
47 63 0
-47 11 0
-23 50 0
-54 40 0
32 15 0
57 61 0
48 8 0
-53 25 0
41 -26 0
-55 -6 0
29 64 0
12 62 0
65 -40 0
-27 -17 0
-33 49 0
-68 -8 0
-22 -14 0
-47 37 0
38 31 0
59 -19 0
10 60 0
5 -2 0
32 -26 0
1 47 0
37 -5 0
-7 -60 0
-15 57 0
-28 22 0
44 -42 0
-67 -51 0
58 -57 0
-40 24 0
4 65 0
-36 -10 0
49 28 0
-55 43 0
41 50 0
-38 -49 0
64 -15 0
32 22 0
35 70 0
-23 54 0
-28 -65 0
12 66 0
