c PROBLEM_060_080_01  vars=60  clausulas=80  k=2
p cnf 60 80
22 -30 0
-51 7 0
16 5 0
-38 -42 0
2 -56 0
-59 -37 0
-3 59 0
54 -59 0
16 52 0
41 -44 0
8 -49 0
50 -46 0
-35 3 0
-19 -31 0
-40 -28 0
34 -57 0
35 52 0
20 -40 0
-31 -24 0
49 -22 0
-58 -30 0
-1 -27 0
37 51 0
-30 -35 0
15 -11 0
38 17 0
60 -47 0
-1 -31 0
43 16 0
-35 12 0
-23 -33 0
-51 38 0
36 28 0
59 -43 0
-57 36 0
56 10 0
-60 39 0
47 9 0
-53 -40 0
-24 -53 0
59 11 0
-36 -17 0
-10 40 0
-11 -15 0
5 -39 0
-6 18 0
-21 60 0
41 40 0
29 -13 0
27 -47 0
52 -1 0
13 -51 0
-6 42 0
58 44 0
37 -12 0
-39 48 0
11 -3 0
45 14 0
26 -4 0
48 -46 0
27 56 0
-31 -27 0
15 -9 0
11 43 0
-29 8 0
6 17 0
-47 -25 0
12 31 0
-9 60 0
-30 44 0
13 32 0
-35 -44 0
5 43 0
-32 -55 0
52 -21 0
-40 -33 0
-14 54 0
-4 -12 0
-23 -19 0
-14 44 0
