c PROBLEM_060_080_23  vars=60  clausulas=80  k=2
p cnf 60 80
23 44 0
-19 47 0
-8 7 0
-50 -37 0
-29 -32 0
-25 5 0
58 20 0
-37 48 0
41 60 0
34 -13 0
33 5 0
-2 40 0
-11 -49 0
-6 -12 0
40 -58 0
-25 53 0
15 43 0
47 6 0
50 -38 0
3 22 0
14 -39 0
-15 54 0
12 -56 0
-27 -52 0
-13 5 0
-53 -23 0
51 29 0
-8 12 0
42 -55 0
-30 25 0
48 -26 0
-43 -51 0
31 -35 0
-19 33 0
57 59 0
-44 32 0
25 -53 0
-48 13 0
-29 -39 0
-2 -56 0
19 -27 0
-43 18 0
-1 -44 0
30 -29 0
52 -46 0
-38 -6 0
20 -9 0
38 -46 0
30 -54 0
-28 41 0
45 -43 0
54 45 0
35 -23 0
35 25 0
-52 -20 0
-60 -7 0
38 -19 0
-12 -50 0
-23 -7 0
-38 -34 0
-15 36 0
16 -35 0
20 47 0
48 -16 0
22 50 0
-6 -21 0
17 -26 0
-26 -12 0
-47 -53 0
10 -12 0
32 54 0
2 -24 0
19 31 0
-18 9 0
4 40 0
6 22 0
9 5 0
-16 -43 0
-47 -18 0
19 -39 0
