c PROBLEM_060_080_25  vars=60  clausulas=80  k=2
p cnf 60 80
11 -50 0
-20 -2 0
-60 25 0
52 -40 0
-13 -29 0
33 -2 0
41 -5 0
56 -43 0
19 9 0
-43 18 0
-60 -5 0
14 1 0
59 10 0
-53 12 0
52 34 0
46 -10 0
8 44 0
16 -8 0
-23 -14 0
-45 -44 0
-39 -22 0
17 27 0
-44 -12 0
-47 21 0
36 28 0
-59 -60 0
-53 -6 0
-21 -13 0
15 -29 0
-14 -46 0
-30 15 0
-38 -48 0
49 -54 0
-24 -20 0
21 -47 0
-47 3 0
-4 -44 0
33 56 0
-18 -13 0
-30 40 0
-49 31 0
-29 25 0
-59 36 0
-17 40 0
-47 46 0
26 2 0
58 -52 0
-55 36 0
-36 -59 0
-31 34 0
27 -6 0
39 -37 0
12 -13 0
11 8 0
17 9 0
31 42 0
1 58 0
55 20 0
20 -42 0
1 50 0
28 -3 0
-30 -5 0
54 44 0
26 60 0
-60 49 0
-33 -51 0
-47 34 0
6 44 0
28 -37 0
-32 2 0
-24 -21 0
-26 -47 0
15 59 0
-18 -16 0
-24 -46 0
35 -49 0
-57 -7 0
-42 -43 0
-10 -51 0
36 2 0
