c PROBLEM_060_080_41  vars=60  clausulas=80  k=2
p cnf 60 80
10 -55 0
33 -3 0
22 47 0
-14 41 0
-6 -54 0
-1 53 0
-15 -39 0
-15 -32 0
47 11 0
-6 36 0
29 17 0
-6 48 0
-45 25 0
11 -45 0
3 -8 0
-49 -56 0
-7 -24 0
-57 29 0
-9 -37 0
59 -4 0
-8 -26 0
-58 -24 0
21 32 0
7 -13 0
-39 58 0
15 23 0
1 -5 0
19 -3 0
-47 34 0
12 -28 0
-31 51 0
-9 12 0
10 -26 0
-1 -52 0
18 -56 0
-8 52 0
47 48 0
35 11 0
6 -27 0
4 -15 0
-11 17 0
-39 11 0
-50 42 0
-1 -35 0
-30 38 0
28 -10 0
46 2 0
-29 -24 0
-52 -35 0
2 -38 0
13 -3 0
-11 -9 0
60 -57 0
47 51 0
32 23 0
-48 50 0
4 -5 0
12 -16 0
-36 -27 0
30 -9 0
40 37 0
-19 -20 0
-24 44 0
-12 -56 0
31 22 0
-44 46 0
-54 -22 0
24 -47 0
25 -29 0
-25 -1 0
-43 -24 0
51 18 0
-43 -48 0
33 2 0
45 -34 0
-23 32 0
-9 49 0
31 42 0
40 5 0
59 26 0
