c PROBLEM_060_080_39  vars=60  clausulas=80  k=2
p cnf 60 80
-52 12 0
-5 -34 0
-54 42 0
23 -21 0
-42 -16 0
-51 -3 0
33 -45 0
-14 -22 0
-22 40 0
-60 19 0
1 6 0
-10 -56 0
-43 -21 0
-38 -26 0
-9 40 0
21 15 0
-1 13 0
-47 -17 0
-53 -40 0
42 -44 0
-2 54 0
51 -49 0
-4 32 0
49 53 0
-20 -27 0
-9 -36 0
54 26 0
-45 -60 0
-3 28 0
-39 -43 0
24 -59 0
52 -57 0
-13 -37 0
26 -5 0
-38 -27 0
5 -30 0
57 -7 0
-12 31 0
-17 -34 0
-12 8 0
29 -12 0
-8 -23 0
-2 -48 0
44 -15 0
-42 8 0
4 -33 0
16 -50 0
10 60 0
58 -56 0
10 12 0
-50 31 0
-41 24 0
57 -27 0
-7 11 0
-2 41 0
-25 5 0
46 19 0
-50 12 0
6 58 0
28 -30 0
-35 8 0
44 5 0
-17 -18 0
-34 36 0
26 -11 0
-37 -29 0
-26 -12 0
16 -49 0
-32 15 0
-25 21 0
3 23 0
-55 47 0
46 37 0
-35 -9 0
-58 -4 0
19 -43 0
39 48 0
49 55 0
59 -19 0
-29 13 0
