c PROBLEM_060_080_16  vars=60  clausulas=80  k=2
p cnf 60 80
-19 -1 0
38 34 0
-16 -60 0
-54 50 0
38 11 0
57 -38 0
-59 8 0
-43 2 0
58 37 0
-20 -60 0
1 53 0
18 -22 0
-9 -20 0
58 23 0
-24 -2 0
-27 58 0
-47 53 0
-14 48 0
-42 -8 0
11 -24 0
-39 -43 0
-38 7 0
35 -51 0
46 13 0
-57 -17 0
-11 36 0
-32 14 0
-7 -36 0
21 20 0
-25 -45 0
-12 -13 0
-30 -23 0
29 -42 0
8 15 0
32 17 0
-10 -44 0
5 40 0
35 -56 0
21 -30 0
-16 33 0
49 -14 0
-21 37 0
44 33 0
-31 -4 0
57 -50 0
-54 3 0
18 59 0
-4 52 0
-7 -53 0
19 12 0
-10 -4 0
-40 -30 0
-19 26 0
-10 -55 0
37 -10 0
39 -23 0
-37 -24 0
-31 -18 0
-50 47 0
-39 -37 0
29 39 0
1 -8 0
60 3 0
-22 -21 0
-57 7 0
-41 36 0
-35 44 0
45 58 0
41 -29 0
-13 -58 0
48 -23 0
45 -59 0
-8 26 0
-7 44 0
13 -12 0
-59 24 0
21 -3 0
28 9 0
31 6 0
-56 -23 0
