c PROBLEM_060_080_20  vars=60  clausulas=80  k=2
p cnf 60 80
7 -28 0
19 46 0
-51 -45 0
17 -5 0
-13 14 0
-15 23 0
-35 19 0
33 -25 0
-41 59 0
-34 -28 0
-42 -30 0
-37 -12 0
-60 25 0
-49 -23 0
-1 -53 0
-36 8 0
-44 -28 0
32 54 0
-26 -24 0
-3 8 0
2 46 0
-54 40 0
25 -31 0
19 -2 0
8 39 0
-9 20 0
-45 -3 0
29 -37 0
52 -17 0
36 24 0
57 -43 0
58 15 0
-11 23 0
39 -29 0
-4 -7 0
57 22 0
-43 -47 0
-57 54 0
36 5 0
55 -15 0
2 50 0
-56 -24 0
-38 -6 0
-23 2 0
-16 22 0
40 -12 0
44 -27 0
-22 16 0
-35 34 0
37 -60 0
11 -50 0
51 39 0
32 -3 0
60 -12 0
-43 -55 0
17 12 0
-51 -14 0
14 -11 0
42 -15 0
-28 56 0
6 15 0
56 49 0
-4 -34 0
-21 -34 0
27 11 0
52 36 0
-59 26 0
50 -41 0
22 51 0
-43 -16 0
-18 10 0
5 -14 0
59 -45 0
13 -9 0
48 11 0
34 45 0
-40 10 0
33 -12 0
-17 37 0
3 37 0
