c PROBLEM_060_080_26  vars=60  clausulas=80  k=2
p cnf 60 80
32 -36 0
43 47 0
-14 -60 0
23 17 0
-37 -57 0
49 40 0
-32 4 0
-43 58 0
20 -36 0
17 27 0
-37 44 0
-13 -30 0
38 45 0
27 -53 0
48 5 0
36 50 0
-38 49 0
45 -15 0
-33 43 0
-25 -35 0
24 3 0
26 -25 0
-45 -5 0
56 -53 0
16 -56 0
-13 11 0
29 30 0
4 -27 0
-20 55 0
2 35 0
-33 -40 0
19 -16 0
19 35 0
-40 -25 0
-21 14 0
-22 46 0
-46 7 0
-58 18 0
-47 14 0
-1 -2 0
-13 11 0
-54 -29 0
-52 -56 0
-27 15 0
19 27 0
-20 36 0
37 -51 0
36 34 0
-6 34 0
32 16 0
-34 -18 0
55 -3 0
-8 59 0
42 51 0
52 -46 0
32 23 0
7 27 0
-54 -16 0
47 -54 0
29 5 0
41 9 0
-29 47 0
-32 -19 0
-24 -48 0
8 1 0
-12 -34 0
28 21 0
42 55 0
24 -60 0
-39 36 0
19 -22 0
-28 19 0
-56 39 0
-30 -10 0
-36 8 0
46 -12 0
-6 -21 0
-31 1 0
34 50 0
-4 -56 0
