c PROBLEM_060_080_17  vars=60  clausulas=80  k=2
p cnf 60 80
29 -4 0
-36 8 0
-60 42 0
50 56 0
23 36 0
-43 20 0
-54 24 0
-47 -58 0
51 -13 0
21 -57 0
-50 38 0
35 -49 0
-50 37 0
11 18 0
-33 -50 0
1 -20 0
-3 -56 0
-26 40 0
14 16 0
33 24 0
38 -45 0
-28 -21 0
-59 -28 0
-25 -52 0
50 33 0
20 -29 0
-38 30 0
14 -31 0
22 -29 0
40 -46 0
-52 37 0
-57 6 0
-50 17 0
-48 42 0
-12 -15 0
9 16 0
-49 -25 0
12 28 0
-35 4 0
-21 -40 0
32 -31 0
-60 45 0
44 35 0
-29 53 0
-25 41 0
18 45 0
-8 42 0
52 -60 0
53 16 0
30 -55 0
22 -20 0
30 -53 0
-18 -10 0
-29 20 0
-34 58 0
5 -25 0
27 -39 0
-40 26 0
-14 -19 0
1 -33 0
-54 -31 0
49 -15 0
-46 19 0
-9 11 0
29 -57 0
-12 -5 0
58 2 0
-7 37 0
-13 -15 0
-56 36 0
18 -3 0
-29 30 0
30 33 0
-52 18 0
54 55 0
-33 -38 0
-17 -13 0
-46 -42 0
5 56 0
55 33 0
