c PROBLEM_060_080_15  vars=60  clausulas=80  k=2
p cnf 60 80
50 54 0
22 -13 0
-44 53 0
-5 44 0
-1 -20 0
18 -46 0
-33 39 0
-45 32 0
-7 45 0
-56 -7 0
-36 53 0
-47 -50 0
-6 59 0
-36 -22 0
35 -6 0
-42 31 0
33 42 0
49 -6 0
-34 -54 0
19 -10 0
26 48 0
-53 -52 0
34 -35 0
14 57 0
20 25 0
8 14 0
7 -31 0
-16 21 0
28 30 0
-27 29 0
1 -41 0
55 4 0
17 -54 0
-37 14 0
-51 -38 0
-41 58 0
40 -6 0
-11 -29 0
-45 32 0
7 -60 0
31 -54 0
36 -54 0
-26 23 0
26 9 0
7 59 0
39 28 0
-51 -55 0
-2 -19 0
20 18 0
44 -11 0
-4 -8 0
11 6 0
-29 -19 0
32 -3 0
-55 25 0
35 2 0
-15 -19 0
-43 -12 0
2 17 0
-57 36 0
-21 27 0
-13 -4 0
36 -38 0
-56 53 0
30 7 0
-38 48 0
57 -53 0
-13 -56 0
-30 -58 0
-24 -19 0
-19 -53 0
58 -39 0
19 4 0
9 5 0
-1 33 0
1 -58 0
-12 -39 0
-1 -35 0
54 40 0
20 50 0
