c PROBLEM_060_080_40  vars=60  clausulas=80  k=2
p cnf 60 80
38 -51 0
-47 8 0
-9 13 0
-48 -5 0
-31 -46 0
28 2 0
-60 -55 0
-7 50 0
10 30 0
15 27 0
17 45 0
12 -60 0
22 -29 0
-11 21 0
-29 36 0
-27 45 0
38 53 0
47 20 0
21 47 0
-10 35 0
28 32 0
-6 -2 0
39 -59 0
-32 16 0
-39 22 0
-32 -10 0
-24 -17 0
30 1 0
-43 31 0
14 -46 0
-4 32 0
28 54 0
48 -60 0
-44 -26 0
45 -54 0
5 -23 0
50 24 0
-29 21 0
35 5 0
-52 26 0
2 20 0
-56 -21 0
-33 43 0
-3 23 0
5 -52 0
-2 -54 0
49 -8 0
-49 -40 0
5 31 0
-37 58 0
-33 -1 0
38 6 0
36 22 0
-32 -21 0
-7 -13 0
-49 29 0
56 -14 0
-31 53 0
-56 -13 0
-20 -42 0
-8 -56 0
9 38 0
-3 6 0
-5 50 0
28 -6 0
-3 -9 0
15 -51 0
-57 25 0
53 -42 0
10 55 0
26 43 0
-42 59 0
-42 55 0
-41 -34 0
52 44 0
24 -13 0
52 24 0
-29 23 0
18 40 0
19 60 0
