c PROBLEM_060_080_11  vars=60  clausulas=80  k=2
p cnf 60 80
-36 21 0
-7 60 0
14 58 0
-18 57 0
10 -52 0
32 -56 0
-31 -32 0
-53 -46 0
-53 -40 0
-18 57 0
-9 6 0
34 -33 0
-32 11 0
28 41 0
51 53 0
6 -27 0
-5 -35 0
30 -22 0
-30 -26 0
-20 -45 0
-5 43 0
42 57 0
42 -19 0
50 -16 0
-7 -52 0
-33 -57 0
-37 21 0
-10 -38 0
43 -48 0
-50 42 0
-43 4 0
-59 -10 0
-12 32 0
-43 37 0
-24 -34 0
-38 7 0
-15 28 0
-32 17 0
58 -43 0
23 25 0
60 -3 0
12 -32 0
-38 46 0
-50 10 0
29 31 0
26 58 0
39 54 0
47 -36 0
39 -20 0
-6 47 0
19 -8 0
-31 -23 0
2 28 0
-16 -13 0
41 -48 0
43 -23 0
23 33 0
53 -2 0
-34 24 0
-50 40 0
49 31 0
-34 53 0
-34 13 0
-46 44 0
-3 -25 0
-48 54 0
46 -27 0
46 -26 0
60 55 0
1 53 0
19 -28 0
-40 -44 0
-45 23 0
11 51 0
12 -2 0
23 -39 0
-58 -11 0
58 -29 0
36 15 0
49 -20 0
