c PROBLEM_060_080_37  vars=60  clausulas=80  k=2
p cnf 60 80
42 -38 0
13 -20 0
-33 -20 0
-52 -3 0
-49 4 0
37 -36 0
40 -56 0
-32 56 0
50 13 0
-22 -16 0
-15 -24 0
47 -3 0
-53 -38 0
48 -25 0
-33 -59 0
-56 -22 0
-5 42 0
17 25 0
-18 45 0
51 35 0
-31 46 0
-9 -11 0
-11 -22 0
-31 -25 0
-2 4 0
39 -14 0
-16 39 0
-46 8 0
-21 -48 0
33 45 0
-16 60 0
-47 51 0
31 -25 0
30 -55 0
39 -23 0
-18 -44 0
22 3 0
-36 22 0
28 18 0
-51 -37 0
27 -37 0
26 -12 0
16 60 0
-44 -7 0
6 -47 0
10 59 0
-43 24 0
-15 -14 0
48 -50 0
-11 -1 0
-57 -17 0
23 -9 0
17 -35 0
27 -30 0
-48 -55 0
-30 20 0
34 -28 0
59 40 0
-54 -23 0
41 -42 0
-57 -19 0
-34 -48 0
-33 29 0
-44 34 0
-50 -42 0
-1 -60 0
28 -6 0
31 14 0
14 5 0
58 36 0
-50 -26 0
-41 13 0
8 17 0
11 49 0
10 -52 0
10 -28 0
39 21 0
-26 2 0
24 -36 0
36 19 0
