c PROBLEM_060_080_21  vars=60  clausulas=80  k=2
p cnf 60 80
-16 50 0
-53 50 0
50 30 0
53 -7 0
44 -42 0
54 14 0
-12 19 0
-2 52 0
34 -51 0
36 39 0
-10 -31 0
-23 27 0
9 -41 0
-10 -60 0
-47 16 0
-12 41 0
-39 33 0
7 -20 0
-23 -24 0
33 6 0
20 46 0
16 26 0
-46 12 0
36 -22 0
-20 58 0
43 -57 0
-51 13 0
28 -40 0
-37 -48 0
38 -24 0
-8 15 0
36 -57 0
-4 -19 0
57 -13 0
5 -56 0
29 11 0
-54 6 0
13 -25 0
51 -36 0
-34 3 0
38 -14 0
42 58 0
-6 15 0
58 23 0
-27 46 0
-44 -29 0
-39 -17 0
32 -5 0
-38 -48 0
-59 -21 0
-23 34 0
14 4 0
17 -20 0
43 1 0
30 -33 0
-3 47 0
2 9 0
-6 -8 0
-50 12 0
-54 -25 0
52 -41 0
30 26 0
35 -49 0
-17 55 0
-50 -45 0
-50 -18 0
-34 24 0
33 -55 0
-10 -50 0
22 42 0
25 -1 0
28 -49 0
-22 50 0
34 14 0
-52 -48 0
25 15 0
-15 -1 0
-24 -26 0
-56 35 0
57 -14 0
