c PROBLEM_060_080_43  vars=60  clausulas=80  k=2
p cnf 60 80
-50 -54 0
31 -25 0
60 -3 0
-22 -31 0
-31 12 0
54 -12 0
-20 49 0
19 21 0
55 -41 0
12 4 0
49 -4 0
-22 18 0
-5 41 0
-25 -49 0
-27 -46 0
-16 30 0
-15 -39 0
10 17 0
59 -10 0
-43 28 0
-53 -40 0
13 -36 0
9 2 0
32 30 0
50 -49 0
48 -30 0
-14 -42 0
26 23 0
44 -4 0
-60 -25 0
19 -54 0
57 27 0
16 -2 0
45 56 0
13 48 0
-16 24 0
30 -55 0
7 3 0
59 4 0
41 19 0
-51 -43 0
1 -12 0
-48 30 0
27 -36 0
33 -26 0
1 -11 0
22 -2 0
31 -17 0
15 -5 0
-4 28 0
-40 -56 0
58 -42 0
-40 51 0
-32 -5 0
-1 -12 0
-17 23 0
-46 37 0
-42 -7 0
-10 -28 0
19 34 0
44 33 0
31 -19 0
22 18 0
55 24 0
18 -39 0
-35 -20 0
-21 -59 0
-11 47 0
57 60 0
-54 38 0
-29 -13 0
-2 -41 0
-52 -15 0
49 6 0
-45 18 0
5 13 0
-4 -40 0
48 8 0
-16 -4 0
34 57 0
