c PROBLEM_060_080_33  vars=60  clausulas=80  k=2
p cnf 60 80
-35 40 0
31 40 0
-53 -46 0
-44 16 0
-9 -28 0
-26 22 0
-6 -8 0
-58 38 0
21 4 0
-2 -28 0
31 -4 0
-41 -14 0
-58 -51 0
-30 11 0
-54 56 0
56 -58 0
-26 30 0
-35 42 0
54 -27 0
-46 -10 0
60 -23 0
53 12 0
12 -40 0
-56 -6 0
-52 -35 0
13 -5 0
23 16 0
-37 9 0
54 -5 0
25 55 0
-13 31 0
-55 -51 0
50 -47 0
-45 29 0
36 24 0
1 8 0
-17 -56 0
45 9 0
49 -16 0
55 -12 0
18 -54 0
-40 -14 0
-33 46 0
-12 -14 0
54 -46 0
-47 -57 0
43 3 0
-13 32 0
12 24 0
-37 -33 0
34 15 0
31 -19 0
-57 15 0
3 22 0
1 18 0
3 -33 0
-17 -50 0
-51 -18 0
39 3 0
-25 2 0
2 3 0
17 -23 0
54 -40 0
-7 47 0
1 22 0
-2 -39 0
59 -34 0
-59 56 0
29 28 0
8 -42 0
-14 18 0
23 31 0
58 -26 0
-29 -20 0
-55 8 0
-19 40 0
39 -1 0
32 36 0
-48 55 0
10 34 0
