c PROBLEM_060_080_12  vars=60  clausulas=80  k=2
p cnf 60 80
42 -9 0
-4 -51 0
-30 26 0
-49 60 0
48 39 0
9 -6 0
-28 24 0
-41 3 0
2 22 0
33 36 0
54 -25 0
37 -60 0
-25 -59 0
-26 39 0
-52 -43 0
5 -36 0
45 58 0
2 51 0
25 -22 0
-57 -58 0
-9 -26 0
-19 -13 0
-18 -57 0
-30 -3 0
35 -60 0
-60 -24 0
-47 34 0
-59 29 0
-17 -58 0
7 -11 0
-52 -25 0
41 -57 0
49 50 0
46 -44 0
33 5 0
-17 35 0
48 42 0
-10 3 0
-36 30 0
28 -10 0
20 18 0
37 34 0
55 -28 0
33 26 0
60 20 0
36 -12 0
-41 -33 0
50 -16 0
-36 -27 0
12 35 0
53 23 0
-3 55 0
-8 -47 0
50 11 0
21 -30 0
-41 23 0
48 -52 0
58 18 0
-26 -40 0
-36 18 0
-56 10 0
-22 33 0
-38 1 0
31 -45 0
34 4 0
-5 -19 0
-1 -8 0
51 -29 0
-48 29 0
33 -32 0
-20 -27 0
-10 15 0
-17 33 0
14 -24 0
15 -37 0
14 -6 0
52 -17 0
11 -32 0
46 -6 0
34 -32 0
