c PROBLEM_060_080_50  vars=60  clausulas=80  k=2
p cnf 60 80
6 54 0
30 60 0
-33 -19 0
6 37 0
-11 -8 0
-23 -29 0
40 -41 0
-53 -43 0
52 -36 0
-50 -23 0
-48 -53 0
21 -35 0
-8 -53 0
22 24 0
20 50 0
46 -40 0
14 -51 0
-44 28 0
34 21 0
-26 -39 0
16 48 0
-10 42 0
-25 -17 0
26 -33 0
-18 -7 0
-29 -11 0
-49 -3 0
29 56 0
-58 -59 0
-9 30 0
6 -35 0
-15 8 0
4 60 0
14 -44 0
42 -46 0
-7 43 0
-35 -17 0
57 -58 0
-16 -6 0
-9 -55 0
25 -28 0
60 55 0
-10 -49 0
-30 29 0
5 -33 0
31 3 0
-11 7 0
50 13 0
-24 3 0
-52 36 0
45 38 0
-20 11 0
35 -26 0
12 -2 0
-11 42 0
32 -30 0
-47 27 0
-2 -60 0
-23 -43 0
19 -43 0
22 16 0
12 -2 0
-51 -46 0
59 -27 0
-6 -11 0
31 53 0
-29 25 0
-11 -60 0
-45 -46 0
16 17 0
-42 54 0
-39 12 0
55 -43 0
1 -33 0
-12 -44 0
7 -47 0
-37 40 0
16 -47 0
50 32 0
-32 1 0
