c PROBLEM_060_080_24  vars=60  clausulas=80  k=2
p cnf 60 80
-54 22 0
-19 18 0
5 2 0
-19 48 0
1 -18 0
-15 2 0
45 -57 0
-16 13 0
-37 -24 0
-5 31 0
-44 -47 0
-60 -9 0
-7 -19 0
-14 -12 0
-43 -40 0
-41 59 0
-7 29 0
-35 8 0
34 -59 0
26 -29 0
-54 -36 0
36 -5 0
-4 16 0
29 -53 0
-51 20 0
-38 23 0
18 1 0
-26 15 0
-5 45 0
-48 6 0
46 -23 0
-30 52 0
11 43 0
20 30 0
36 33 0
-33 51 0
47 -34 0
57 16 0
11 -4 0
-24 -15 0
-50 7 0
43 57 0
33 23 0
3 -22 0
28 -22 0
42 -22 0
-5 -40 0
-41 -60 0
48 27 0
57 3 0
6 -36 0
-29 7 0
53 -42 0
4 -56 0
-16 58 0
14 -39 0
-4 -44 0
-55 42 0
2 56 0
-48 20 0
32 35 0
-13 49 0
-21 8 0
-41 27 0
-15 3 0
58 10 0
13 50 0
25 40 0
-49 21 0
-20 -3 0
-38 -50 0
-21 27 0
-27 -8 0
-8 -19 0
45 17 0
19 17 0
2 -59 0
45 -51 0
-25 -26 0
-2 -60 0
