c PROBLEM_025_080_24  vars=25  clausulas=80  k=2
p cnf 25 80
17 1 0
22 11 0
13 7 0
-8 -16 0
-2 -7 0
9 25 0
-14 25 0
9 14 0
-14 4 0
22 -18 0
14 -18 0
-18 -22 0
9 10 0
-2 23 0
20 11 0
-22 1 0
2 -21 0
-22 24 0
-3 -6 0
5 20 0
-5 22 0
-13 -2 0
12 23 0
-24 -9 0
-12 7 0
4 17 0
-12 -13 0
-14 8 0
16 -13 0
23 -6 0
20 6 0
20 7 0
-21 -1 0
18 -2 0
20 -14 0
-10 -15 0
20 13 0
11 -10 0
-10 11 0
17 -20 0
11 -18 0
2 7 0
12 -11 0
7 -2 0
-3 -13 0
-10 4 0
17 4 0
-19 -7 0
18 10 0
16 7 0
-18 2 0
18 5 0
-18 -17 0
-6 -14 0
-4 9 0
-14 -2 0
6 -15 0
-13 24 0
-12 -17 0
-14 -22 0
-7 14 0
6 2 0
16 -24 0
-9 -13 0
-4 -3 0
-12 -18 0
-11 -1 0
7 -23 0
7 4 0
-13 9 0
-11 -14 0
15 -18 0
-6 20 0
-3 -9 0
-9 -13 0
20 18 0
-16 19 0
-3 14 0
21 -1 0
1 -18 0
