c PROBLEM_025_080_50  vars=25  clausulas=80  k=2
p cnf 25 80
19 13 0
16 -13 0
-10 9 0
18 17 0
-3 10 0
-6 -14 0
-22 -9 0
-14 2 0
-21 -3 0
20 15 0
17 -12 0
-21 -3 0
24 3 0
7 -19 0
11 9 0
-23 -5 0
-10 -16 0
-13 -22 0
11 22 0
19 -11 0
-23 19 0
1 -20 0
-18 -10 0
-3 1 0
3 16 0
-3 -4 0
-3 4 0
21 -8 0
-25 5 0
-1 17 0
-4 -21 0
-22 -1 0
2 -10 0
16 -21 0
-23 -25 0
25 -8 0
-7 5 0
-3 6 0
-13 9 0
-6 -22 0
-6 20 0
1 -23 0
-2 13 0
-20 -14 0
18 2 0
4 -1 0
20 21 0
-22 19 0
24 9 0
19 8 0
-10 -9 0
-13 -2 0
-13 -1 0
-11 1 0
14 -20 0
-5 15 0
-23 -25 0
14 18 0
-12 21 0
20 -17 0
10 -14 0
15 -12 0
8 4 0
25 -8 0
-12 -24 0
7 -3 0
-9 -20 0
-1 -8 0
14 -22 0
25 24 0
-24 4 0
-2 -10 0
-12 21 0
-6 22 0
3 -24 0
-1 -5 0
-8 6 0
15 -6 0
11 22 0
-12 -5 0
