c PROBLEM_025_080_05  vars=25  clausulas=80  k=2
p cnf 25 80
-2 3 0
-11 -3 0
-9 13 0
-1 5 0
-22 -19 0
22 18 0
19 -24 0
-7 17 0
-10 19 0
-4 -17 0
3 -13 0
5 -20 0
4 -8 0
-11 6 0
10 15 0
-1 -6 0
-17 11 0
2 -20 0
24 -7 0
7 9 0
8 -22 0
7 -15 0
-16 13 0
-17 -24 0
25 8 0
-23 -3 0
9 -6 0
-14 1 0
-16 14 0
-2 -23 0
-18 -6 0
-5 7 0
-17 18 0
-8 1 0
19 -16 0
-5 4 0
5 -21 0
6 10 0
17 -9 0
12 14 0
-14 -12 0
-2 20 0
15 22 0
17 18 0
-7 -11 0
3 -25 0
-11 -24 0
-18 -21 0
-10 2 0
-14 19 0
-5 -22 0
7 -17 0
-14 7 0
-4 14 0
-16 4 0
5 -17 0
-12 -7 0
-11 17 0
-23 18 0
-17 14 0
-8 -2 0
-8 -4 0
-2 -3 0
-2 6 0
-4 -7 0
-14 21 0
-21 -14 0
-8 25 0
1 -17 0
-3 -2 0
-22 -12 0
19 -21 0
24 25 0
-11 -23 0
23 -18 0
8 -11 0
-23 -12 0
9 -22 0
-13 -1 0
-19 -9 0
