c PROBLEM_025_080_13  vars=25  clausulas=80  k=2
p cnf 25 80
-12 -7 0
13 8 0
5 -6 0
-25 -2 0
-1 8 0
20 19 0
-10 -12 0
16 -25 0
-14 4 0
-15 24 0
15 -21 0
13 -14 0
19 4 0
25 -5 0
22 -4 0
-9 -4 0
21 -12 0
10 -16 0
22 -13 0
-6 14 0
2 -10 0
-11 14 0
-24 -23 0
16 21 0
21 2 0
15 -6 0
25 -18 0
11 23 0
-24 9 0
-18 15 0
-2 -22 0
-24 18 0
-1 20 0
25 -8 0
9 -12 0
-8 -23 0
-11 24 0
2 -16 0
20 9 0
-7 -9 0
5 14 0
-8 17 0
-11 24 0
2 12 0
-16 -22 0
3 -23 0
21 16 0
-25 3 0
24 -1 0
-15 -9 0
-11 20 0
9 -20 0
-9 -13 0
-9 14 0
-19 -7 0
22 -24 0
-8 15 0
17 -2 0
-14 -4 0
25 -23 0
17 3 0
-23 -13 0
-5 9 0
-5 6 0
18 -9 0
3 21 0
-25 -13 0
-9 21 0
20 14 0
-5 23 0
-11 6 0
23 2 0
5 -24 0
18 3 0
-10 -21 0
-2 14 0
-8 16 0
-14 -10 0
-7 -21 0
24 -3 0
