c PROBLEM_025_080_46  vars=25  clausulas=80  k=2
p cnf 25 80
2 19 0
-1 25 0
19 -1 0
-4 17 0
-10 -9 0
21 -9 0
4 -21 0
16 -9 0
-7 -18 0
-24 25 0
-23 -8 0
-15 -2 0
9 1 0
19 7 0
16 10 0
9 17 0
-25 23 0
1 24 0
-2 -21 0
-4 -22 0
4 -20 0
20 -8 0
-10 9 0
15 5 0
14 1 0
-5 17 0
8 14 0
3 16 0
-3 4 0
2 -14 0
21 -5 0
10 8 0
-23 14 0
-11 -13 0
-9 17 0
-6 -8 0
10 1 0
3 19 0
13 25 0
17 19 0
-18 -13 0
-24 -21 0
22 9 0
-19 -21 0
15 -12 0
-11 -19 0
-25 9 0
-3 -6 0
-1 -8 0
-7 22 0
-10 -1 0
-12 25 0
2 9 0
3 21 0
21 -10 0
19 -11 0
18 -8 0
18 22 0
3 14 0
-17 25 0
25 21 0
16 14 0
-5 -18 0
-25 -5 0
-3 9 0
-11 -15 0
-20 -23 0
-23 18 0
19 -7 0
-6 -24 0
-4 7 0
9 -12 0
14 -15 0
-11 9 0
-21 -9 0
-4 -14 0
17 10 0
19 -6 0
9 3 0
-8 12 0
