c PROBLEM_025_080_15  vars=25  clausulas=80  k=2
p cnf 25 80
8 3 0
12 6 0
-1 19 0
19 -15 0
-10 6 0
7 -17 0
-13 -17 0
-11 19 0
16 -24 0
16 12 0
-25 -18 0
16 22 0
9 -1 0
12 16 0
-23 2 0
-5 -20 0
-6 14 0
-13 10 0
-3 -19 0
14 12 0
-11 -16 0
20 -6 0
-7 21 0
-12 10 0
-7 -25 0
-17 15 0
-16 2 0
-20 -5 0
-22 7 0
-21 -5 0
2 17 0
-20 10 0
-8 9 0
-12 -24 0
-10 -8 0
-6 -24 0
5 13 0
-21 -11 0
12 1 0
8 22 0
20 -6 0
-20 -21 0
18 10 0
-6 -12 0
13 -21 0
17 16 0
-18 -21 0
3 -19 0
-22 -24 0
-21 14 0
23 -22 0
-21 -9 0
20 9 0
-19 20 0
6 -20 0
1 -18 0
17 22 0
-11 5 0
18 16 0
14 19 0
-22 5 0
13 -10 0
-3 -8 0
-11 21 0
-24 1 0
9 24 0
-22 -10 0
6 -20 0
-7 -17 0
-11 -14 0
-9 -2 0
10 11 0
-1 -23 0
1 -21 0
-14 -8 0
4 -7 0
21 -10 0
-24 -8 0
10 15 0
-24 21 0
