c PROBLEM_025_080_43  vars=25  clausulas=80  k=2
p cnf 25 80
-12 22 0
-1 20 0
-9 12 0
2 -4 0
23 -1 0
13 -5 0
-14 2 0
-25 11 0
-3 -15 0
-1 -18 0
-22 -18 0
7 -23 0
-21 10 0
-12 -9 0
19 8 0
-15 -25 0
24 1 0
3 19 0
-20 -19 0
12 4 0
14 -4 0
-22 -10 0
-22 8 0
10 18 0
19 10 0
-18 -16 0
-22 -7 0
-22 14 0
-11 15 0
-11 -21 0
-6 -3 0
-5 10 0
-3 -2 0
16 7 0
-20 24 0
13 2 0
-5 -17 0
-5 1 0
-25 -20 0
17 -6 0
11 1 0
24 -10 0
22 5 0
17 -3 0
8 3 0
-8 -10 0
-24 11 0
-13 1 0
15 -24 0
25 -15 0
-21 23 0
-15 -23 0
15 18 0
-11 -6 0
22 13 0
-7 13 0
-16 -18 0
-22 -25 0
16 20 0
8 -3 0
19 13 0
17 15 0
-10 -21 0
-23 -25 0
9 24 0
19 14 0
20 -5 0
3 -1 0
5 12 0
-5 4 0
3 12 0
9 -5 0
9 -8 0
-2 15 0
10 -18 0
-3 23 0
21 -7 0
-12 22 0
-22 4 0
-18 7 0
