c PROBLEM_025_080_42  vars=25  clausulas=80  k=2
p cnf 25 80
20 -7 0
6 8 0
-3 25 0
-4 8 0
23 -2 0
-1 17 0
23 -17 0
15 17 0
-5 -3 0
-20 6 0
-15 -12 0
20 -21 0
-19 -18 0
25 21 0
-11 14 0
-17 2 0
-5 -13 0
-18 5 0
7 -19 0
2 25 0
5 -12 0
-22 -11 0
-15 12 0
-23 -10 0
-21 -2 0
-7 -12 0
15 3 0
13 -21 0
8 24 0
-5 13 0
-19 14 0
7 17 0
6 19 0
7 -11 0
25 -9 0
-25 -12 0
-23 -1 0
-22 23 0
3 -16 0
-8 -18 0
-4 -1 0
7 13 0
-15 8 0
2 15 0
-9 24 0
-17 11 0
1 -8 0
7 -18 0
2 4 0
-24 -22 0
4 -9 0
-21 3 0
3 2 0
-8 -19 0
-7 6 0
6 -20 0
-3 19 0
1 -12 0
-1 -21 0
-21 -24 0
7 -16 0
-14 -3 0
-19 23 0
15 5 0
-14 -20 0
20 12 0
-14 7 0
-9 18 0
-16 2 0
16 -10 0
22 -10 0
-14 -1 0
-4 17 0
12 -24 0
-22 2 0
5 -12 0
10 13 0
-5 24 0
10 7 0
16 2 0
