c PROBLEM_025_080_07  vars=25  clausulas=80  k=2
p cnf 25 80
7 -23 0
-15 -11 0
-19 -14 0
19 -6 0
-9 3 0
19 -23 0
21 9 0
8 -6 0
-3 -12 0
23 11 0
8 -21 0
-18 -20 0
-20 6 0
4 -17 0
12 19 0
21 19 0
11 16 0
7 -14 0
17 21 0
-20 -4 0
-2 -6 0
2 -16 0
-21 -20 0
-5 -6 0
9 7 0
-20 16 0
-23 8 0
-14 1 0
13 11 0
-8 10 0
-7 -18 0
9 19 0
-15 16 0
-23 20 0
22 18 0
14 13 0
-12 -21 0
25 -1 0
-19 18 0
23 6 0
11 -6 0
21 -2 0
8 20 0
22 -14 0
-5 -23 0
16 -8 0
-18 -24 0
7 18 0
25 -6 0
9 -17 0
-21 -1 0
-22 -2 0
20 10 0
9 6 0
-3 -11 0
9 19 0
3 -6 0
15 7 0
16 21 0
23 9 0
8 4 0
-8 10 0
6 -8 0
3 -19 0
-1 -11 0
-9 15 0
21 -14 0
-3 -17 0
-1 18 0
24 -17 0
19 12 0
14 24 0
-3 18 0
13 -3 0
-5 12 0
15 -13 0
-21 4 0
11 13 0
-4 -9 0
-25 18 0
