c PROBLEM_025_080_01  vars=25  clausulas=80  k=2
p cnf 25 80
12 13 0
-9 1 0
-15 -7 0
-4 11 0
-10 5 0
17 14 0
-11 -22 0
-10 22 0
18 10 0
24 -17 0
-20 -18 0
-25 -21 0
-14 -23 0
2 14 0
-14 -21 0
-5 6 0
16 1 0
-14 15 0
-4 -2 0
22 -18 0
20 -10 0
14 -12 0
13 -6 0
6 -3 0
-14 19 0
-15 4 0
-4 3 0
16 -3 0
2 19 0
-23 -2 0
-1 17 0
-2 7 0
10 14 0
14 -5 0
2 22 0
-12 -22 0
-21 3 0
-20 2 0
17 -16 0
-15 17 0
7 24 0
16 17 0
4 24 0
-17 -19 0
13 8 0
17 -9 0
-13 21 0
-2 18 0
-2 25 0
1 2 0
-19 -12 0
-15 -8 0
-20 -15 0
-23 18 0
19 5 0
12 18 0
-20 -17 0
10 15 0
-17 25 0
-25 16 0
-4 7 0
-23 -17 0
-21 9 0
6 8 0
-2 -5 0
8 -10 0
-11 19 0
-19 -16 0
-21 11 0
-8 18 0
-3 20 0
-7 -8 0
-15 -1 0
1 -19 0
3 -4 0
-18 -16 0
-20 -6 0
6 15 0
-25 -15 0
4 -13 0
