c PROBLEM_025_080_32  vars=25  clausulas=80  k=2
p cnf 25 80
-22 12 0
-3 19 0
7 -20 0
-15 -6 0
-20 16 0
12 24 0
-2 8 0
11 9 0
7 -20 0
-17 -11 0
-17 25 0
5 -25 0
-15 -8 0
-6 -13 0
-10 -17 0
-25 -15 0
5 -12 0
-22 -1 0
13 19 0
-9 -4 0
19 -18 0
-24 12 0
-23 22 0
5 -8 0
23 10 0
-7 -21 0
17 -20 0
24 -15 0
22 -5 0
-9 -7 0
23 18 0
-4 2 0
10 15 0
-21 -6 0
23 22 0
8 -9 0
-3 -14 0
-1 -23 0
21 13 0
19 18 0
21 18 0
25 18 0
-4 -13 0
23 -4 0
1 -8 0
-22 -4 0
-20 -11 0
-22 18 0
11 -24 0
17 -14 0
-3 -12 0
-17 10 0
6 -15 0
-16 25 0
-10 -16 0
17 20 0
-11 14 0
-16 -20 0
24 -21 0
23 17 0
-2 -15 0
-3 -2 0
23 -16 0
14 -20 0
16 -8 0
12 -24 0
24 22 0
17 5 0
-7 9 0
14 25 0
-17 -22 0
-12 19 0
-6 7 0
11 8 0
18 -25 0
11 -21 0
18 -14 0
-8 25 0
-20 -18 0
8 -2 0
