c PROBLEM_025_080_26  vars=25  clausulas=80  k=2
p cnf 25 80
-22 20 0
10 -11 0
16 12 0
-12 -25 0
-11 9 0
-16 1 0
-2 12 0
10 -15 0
-24 -14 0
-17 15 0
7 6 0
18 15 0
23 13 0
-9 17 0
-25 -16 0
-15 13 0
3 22 0
12 16 0
-16 -25 0
-17 15 0
11 14 0
24 2 0
-5 19 0
-24 7 0
11 14 0
-9 17 0
-21 -16 0
-12 -5 0
19 -8 0
4 -17 0
19 8 0
-18 -19 0
14 -8 0
21 15 0
21 1 0
25 13 0
16 -17 0
14 17 0
8 6 0
-24 25 0
10 -17 0
4 -3 0
4 -14 0
-22 13 0
15 13 0
6 -23 0
2 16 0
8 16 0
7 1 0
14 -24 0
-2 12 0
-9 -7 0
-20 9 0
-12 -1 0
-19 16 0
11 -20 0
11 7 0
5 16 0
-8 -25 0
16 -12 0
-8 -11 0
-20 14 0
-4 10 0
23 -1 0
-25 -3 0
-3 22 0
-21 5 0
-22 -23 0
-18 -3 0
-18 15 0
-22 -4 0
-7 18 0
2 25 0
-14 15 0
6 19 0
-2 -1 0
13 20 0
-11 -7 0
-13 -5 0
-4 16 0
