c PROBLEM_025_080_29  vars=25  clausulas=80  k=2
p cnf 25 80
4 -7 0
-5 -4 0
12 -2 0
22 4 0
3 12 0
-24 17 0
5 10 0
-6 -2 0
-9 6 0
-23 -8 0
16 23 0
-1 9 0
-11 13 0
10 20 0
22 5 0
3 -25 0
6 -19 0
-6 -11 0
-25 17 0
-24 23 0
-15 25 0
-6 -19 0
13 4 0
-9 -21 0
-18 -4 0
-4 24 0
19 1 0
24 6 0
-21 -14 0
-15 -8 0
13 -9 0
12 13 0
17 -20 0
11 12 0
-4 -6 0
-13 -22 0
20 15 0
18 2 0
-25 18 0
-1 -14 0
-8 22 0
-10 -7 0
-17 11 0
-2 8 0
-16 -22 0
-7 -25 0
23 -16 0
-3 -16 0
-25 -20 0
5 17 0
1 2 0
-5 -17 0
17 18 0
-19 -25 0
-18 -19 0
10 19 0
24 -6 0
20 -19 0
-22 -6 0
-11 3 0
1 -11 0
-5 8 0
17 -14 0
-19 -1 0
-20 -2 0
-16 17 0
16 18 0
5 -20 0
-18 19 0
-13 -15 0
-24 -4 0
13 -10 0
16 -2 0
-3 5 0
-9 -20 0
11 12 0
-6 15 0
22 -12 0
-1 2 0
20 -19 0
