c PROBLEM_025_080_08  vars=25  clausulas=80  k=2
p cnf 25 80
-18 -16 0
-25 3 0
-9 18 0
15 7 0
15 22 0
-11 -17 0
15 20 0
-12 5 0
15 -19 0
-5 -14 0
20 -1 0
-1 4 0
15 6 0
-10 -15 0
-7 -23 0
21 -24 0
-19 14 0
21 -22 0
1 25 0
7 19 0
-24 14 0
-23 -17 0
-10 -16 0
-25 4 0
5 21 0
23 -22 0
18 22 0
7 -4 0
2 -8 0
-17 -13 0
8 16 0
5 15 0
15 2 0
22 12 0
7 20 0
-9 14 0
-8 9 0
14 -3 0
17 -1 0
-17 16 0
22 -7 0
-12 9 0
-17 19 0
4 5 0
5 -3 0
-5 23 0
15 18 0
-8 18 0
-7 -16 0
22 -5 0
23 -7 0
14 21 0
9 -8 0
-11 -10 0
20 -1 0
8 -18 0
-11 -17 0
-13 6 0
-17 8 0
-25 -21 0
8 -11 0
3 16 0
18 19 0
-13 -15 0
-7 -22 0
4 22 0
21 15 0
-10 -21 0
-2 3 0
23 -6 0
12 6 0
16 -13 0
8 -21 0
-6 -13 0
13 20 0
-9 -20 0
11 1 0
12 -11 0
-5 -9 0
18 -10 0
