c PROBLEM_025_080_44  vars=25  clausulas=80  k=2
p cnf 25 80
3 10 0
8 -18 0
-3 -15 0
20 25 0
15 -25 0
-24 -10 0
-25 -3 0
11 3 0
-22 -5 0
-24 -19 0
8 6 0
22 11 0
20 -19 0
-19 7 0
-12 3 0
9 2 0
-17 -25 0
11 8 0
-6 -18 0
-16 24 0
-13 21 0
-19 5 0
-21 -4 0
13 21 0
-1 3 0
-5 25 0
-11 -19 0
17 -8 0
23 5 0
-3 -5 0
22 5 0
-12 -8 0
-7 4 0
15 18 0
-19 -11 0
12 2 0
-20 8 0
-9 -16 0
-25 -2 0
17 -9 0
-12 18 0
-9 -3 0
6 -21 0
-6 10 0
-18 1 0
-8 1 0
3 23 0
13 5 0
-20 -11 0
20 -25 0
2 1 0
23 10 0
-6 -18 0
-7 -6 0
10 4 0
5 -4 0
15 -8 0
25 -17 0
-9 -15 0
-20 11 0
20 4 0
20 10 0
-15 3 0
13 18 0
-15 24 0
-14 23 0
21 5 0
-16 -7 0
-21 17 0
-21 -4 0
-25 -19 0
-10 -13 0
-25 -20 0
-17 -18 0
-4 -7 0
14 -21 0
15 -6 0
-3 25 0
-23 -14 0
-18 9 0
