c PROBLEM_025_080_02  vars=25  clausulas=80  k=2
p cnf 25 80
-25 13 0
-13 -10 0
-3 -15 0
-24 -11 0
20 -22 0
6 18 0
-11 12 0
-12 -17 0
17 1 0
19 22 0
-14 20 0
-21 -3 0
9 7 0
-11 -12 0
20 14 0
5 6 0
-19 -22 0
18 -20 0
14 19 0
15 -11 0
-2 4 0
-12 -9 0
-24 19 0
-8 19 0
4 -3 0
22 -6 0
8 4 0
2 23 0
14 3 0
10 -18 0
12 -7 0
13 -17 0
20 -19 0
-18 -1 0
6 9 0
23 3 0
-13 14 0
12 18 0
-2 14 0
-22 17 0
20 -8 0
21 14 0
13 -1 0
-13 -12 0
7 17 0
5 -17 0
15 17 0
-3 11 0
-24 23 0
8 -23 0
4 -19 0
-10 -16 0
10 11 0
-19 1 0
24 7 0
-8 20 0
-9 -17 0
16 17 0
24 17 0
17 1 0
24 -3 0
2 19 0
24 5 0
-17 -19 0
-11 -9 0
4 -2 0
25 -22 0
16 -3 0
-13 -21 0
-25 -8 0
-8 20 0
14 7 0
6 -3 0
22 -2 0
6 5 0
-4 -13 0
-2 8 0
4 12 0
6 -25 0
-20 6 0
