c PROBLEM_035_100_06  vars=35  clausulas=100  k=2
p cnf 35 100
-20 30 0
-8 -22 0
-20 -35 0
-34 -10 0
-7 35 0
-21 17 0
13 -2 0
23 7 0
-3 -23 0
-13 -11 0
19 -15 0
-21 17 0
-1 -32 0
-14 -22 0
11 -28 0
-21 4 0
3 23 0
-15 18 0
25 9 0
-19 3 0
5 30 0
-33 26 0
-19 4 0
-26 -14 0
-21 19 0
30 33 0
-7 6 0
-13 -20 0
5 33 0
28 -24 0
17 10 0
18 -30 0
28 -22 0
-6 18 0
-14 -35 0
34 31 0
3 24 0
28 26 0
-19 30 0
-20 33 0
-3 -17 0
27 12 0
20 -18 0
-11 -10 0
-17 20 0
-30 6 0
-15 -23 0
4 18 0
8 -33 0
30 13 0
-16 10 0
-1 -6 0
-6 10 0
-13 29 0
-25 -24 0
32 -3 0
-10 19 0
-15 19 0
-1 8 0
-5 -33 0
-1 -33 0
16 -11 0
-21 8 0
-9 -31 0
35 7 0
-7 -14 0
28 -3 0
-8 -18 0
-11 -10 0
-16 10 0
-2 -25 0
-19 17 0
5 -14 0
11 9 0
32 -29 0
18 7 0
-16 -5 0
16 8 0
27 1 0
-35 32 0
16 -22 0
16 3 0
6 15 0
14 -25 0
-23 -3 0
-18 17 0
-18 7 0
20 33 0
-27 -18 0
18 35 0
-13 24 0
26 16 0
3 -28 0
-12 -3 0
-22 -33 0
16 -21 0
-27 4 0
1 12 0
5 -34 0
16 -17 0
