c PROBLEM_035_100_42  vars=35  clausulas=100  k=2
p cnf 35 100
2 -27 0
8 -3 0
-35 23 0
20 -26 0
-30 24 0
-2 -32 0
-22 16 0
12 22 0
-9 18 0
-15 23 0
-27 11 0
11 14 0
-6 26 0
22 -4 0
13 17 0
-29 -24 0
-7 -1 0
28 -21 0
-14 -15 0
14 32 0
33 -1 0
33 29 0
3 -12 0
9 -20 0
5 25 0
24 32 0
8 21 0
-16 -3 0
30 26 0
-25 15 0
-8 2 0
-6 12 0
13 9 0
14 -22 0
1 21 0
11 14 0
13 31 0
27 7 0
-2 27 0
10 -15 0
13 24 0
-17 4 0
4 -7 0
28 -11 0
1 -11 0
-32 -31 0
25 15 0
-19 -16 0
18 16 0
-17 -14 0
31 -17 0
24 8 0
-22 19 0
8 -16 0
19 -24 0
21 -35 0
25 5 0
8 34 0
-1 12 0
-24 -30 0
-13 -1 0
-17 -7 0
-9 -17 0
31 -14 0
-5 -33 0
-6 7 0
1 9 0
33 -3 0
25 -19 0
-4 -8 0
14 21 0
2 32 0
20 -23 0
-6 2 0
24 3 0
-3 7 0
-33 11 0
-4 -29 0
33 -22 0
-23 -21 0
-21 13 0
12 23 0
6 -28 0
34 25 0
-31 2 0
32 20 0
10 14 0
9 24 0
23 -15 0
-32 27 0
20 23 0
28 -32 0
18 -35 0
6 1 0
-4 -1 0
-30 33 0
-15 -2 0
17 19 0
24 -26 0
10 24 0
