c PROBLEM_035_100_38  vars=35  clausulas=100  k=2
p cnf 35 100
31 13 0
-2 -10 0
35 -13 0
4 9 0
-35 -31 0
-10 6 0
-23 34 0
-33 -15 0
12 28 0
-16 -9 0
-13 25 0
20 33 0
24 18 0
-27 -33 0
-11 33 0
22 -11 0
-10 14 0
35 -20 0
4 15 0
16 23 0
-6 27 0
10 7 0
-32 21 0
-11 -24 0
23 -20 0
11 33 0
-5 28 0
25 -20 0
-12 4 0
21 -28 0
22 3 0
-15 11 0
-21 -6 0
8 -12 0
11 -34 0
-32 -6 0
15 -34 0
27 28 0
26 -20 0
35 -4 0
-35 -33 0
29 30 0
15 29 0
-22 8 0
-29 22 0
29 -18 0
-20 -12 0
34 -3 0
25 3 0
-11 -3 0
-5 13 0
17 -27 0
-35 -25 0
20 -18 0
-7 -1 0
-14 -7 0
3 -35 0
-35 -27 0
-18 -13 0
10 -7 0
7 12 0
-22 16 0
8 22 0
9 18 0
21 4 0
-19 21 0
25 22 0
17 -30 0
5 -17 0
-10 27 0
1 17 0
9 2 0
4 -1 0
13 -17 0
-21 -19 0
8 -18 0
-16 29 0
15 -23 0
9 32 0
16 -23 0
24 -21 0
-14 18 0
-28 3 0
35 -29 0
-27 28 0
20 22 0
27 18 0
29 -12 0
12 -25 0
4 -30 0
-8 30 0
-29 3 0
-10 7 0
-3 24 0
-11 18 0
5 12 0
19 -30 0
-19 -7 0
22 33 0
-32 -26 0
