c PROBLEM_035_100_35  vars=35  clausulas=100  k=2
p cnf 35 100
10 31 0
-18 11 0
-23 8 0
29 11 0
27 -11 0
14 22 0
29 -35 0
-20 5 0
25 -22 0
-13 10 0
29 17 0
12 -20 0
-28 -21 0
10 35 0
12 29 0
-33 -10 0
-26 32 0
-28 4 0
-6 11 0
-17 -1 0
-7 27 0
-6 17 0
15 -14 0
15 -16 0
-6 -11 0
4 -8 0
-4 15 0
13 22 0
-5 32 0
13 -30 0
-1 10 0
-33 -14 0
-13 -27 0
18 25 0
-28 -13 0
-23 -3 0
-1 -25 0
-16 15 0
28 -6 0
19 -1 0
24 19 0
-21 17 0
-20 -32 0
-34 18 0
-7 -15 0
35 30 0
22 20 0
5 -9 0
17 29 0
-5 -33 0
-5 -6 0
4 29 0
6 -2 0
29 26 0
-8 -9 0
11 6 0
13 -5 0
-18 32 0
9 32 0
25 -5 0
32 -12 0
-14 2 0
15 21 0
5 -28 0
23 -33 0
-26 13 0
16 3 0
-8 25 0
31 1 0
18 -13 0
-33 -32 0
-8 -2 0
35 12 0
-23 15 0
31 -17 0
-31 -28 0
-25 20 0
-17 14 0
-2 -32 0
-27 -12 0
22 -3 0
-30 2 0
1 23 0
16 13 0
33 28 0
28 34 0
26 -19 0
-18 8 0
-22 -4 0
-15 -31 0
30 -10 0
17 24 0
30 -12 0
-23 13 0
-14 -9 0
12 13 0
-27 22 0
-21 -20 0
32 -18 0
9 -14 0
