c PROBLEM_035_100_41  vars=35  clausulas=100  k=2
p cnf 35 100
-1 29 0
20 -14 0
14 19 0
20 -28 0
3 -33 0
-32 31 0
-34 -16 0
-3 -28 0
31 -34 0
34 5 0
-2 -12 0
33 32 0
20 -7 0
-10 -11 0
28 32 0
29 26 0
21 -30 0
-12 23 0
-25 24 0
33 23 0
-23 17 0
-14 26 0
28 32 0
-27 5 0
3 -27 0
-21 -11 0
7 33 0
-35 31 0
26 19 0
16 -17 0
30 12 0
-24 -14 0
-10 -32 0
31 8 0
7 3 0
21 7 0
6 -1 0
26 -13 0
-24 14 0
-23 -9 0
16 -6 0
-6 19 0
-22 -13 0
6 2 0
-21 -17 0
-26 7 0
20 6 0
1 -19 0
25 -24 0
-11 -19 0
10 5 0
15 3 0
12 -10 0
32 -1 0
12 29 0
29 -9 0
31 -1 0
20 -1 0
-3 29 0
35 12 0
-25 7 0
3 21 0
13 21 0
-4 -27 0
19 -24 0
-29 -20 0
29 12 0
33 -28 0
-35 3 0
13 27 0
-5 -17 0
30 -35 0
-15 -5 0
23 25 0
32 -11 0
-14 -13 0
11 -31 0
5 6 0
-23 29 0
11 18 0
-6 7 0
-18 33 0
1 -13 0
-9 5 0
-2 -30 0
-4 5 0
31 28 0
3 1 0
-7 -12 0
33 -11 0
9 -34 0
-20 24 0
34 4 0
-5 14 0
9 24 0
-26 9 0
-13 2 0
11 26 0
-20 15 0
10 15 0
