c PROBLEM_035_100_30  vars=35  clausulas=100  k=2
p cnf 35 100
-15 -18 0
15 -22 0
11 23 0
-14 28 0
-9 19 0
-30 26 0
-34 -24 0
4 -32 0
-4 -30 0
-11 6 0
-30 26 0
32 -28 0
12 18 0
12 20 0
-12 14 0
9 31 0
6 22 0
19 -2 0
8 34 0
-4 -34 0
6 -11 0
30 17 0
17 -27 0
-28 33 0
-1 3 0
-29 2 0
-11 -25 0
6 9 0
-13 -1 0
6 28 0
17 -19 0
-10 -17 0
-6 18 0
16 31 0
8 2 0
-31 16 0
-10 22 0
27 19 0
-33 22 0
15 -3 0
-17 15 0
-29 8 0
35 -30 0
-21 5 0
-4 19 0
-20 2 0
-9 -29 0
8 -13 0
-11 13 0
17 11 0
9 11 0
29 -31 0
14 8 0
11 35 0
-11 2 0
2 25 0
25 17 0
-15 2 0
-24 20 0
-31 -20 0
-34 5 0
-4 13 0
-2 17 0
-4 -12 0
2 -32 0
-5 30 0
-14 -26 0
-31 8 0
-23 3 0
30 -14 0
32 -16 0
20 -22 0
16 -3 0
26 -28 0
12 1 0
-6 34 0
10 -34 0
15 6 0
-24 6 0
-5 -12 0
23 -9 0
-7 -35 0
17 -1 0
22 10 0
31 26 0
-35 -23 0
6 27 0
21 35 0
33 3 0
8 10 0
4 34 0
33 16 0
-26 35 0
26 34 0
-27 14 0
-28 -10 0
13 -5 0
-12 7 0
-35 -26 0
-30 15 0
