c PROBLEM_035_100_44  vars=35  clausulas=100  k=2
p cnf 35 100
12 3 0
-19 -5 0
-30 -32 0
-16 29 0
-15 6 0
-34 31 0
-23 -3 0
19 20 0
11 -22 0
-8 -15 0
8 -24 0
25 -18 0
11 -25 0
26 -19 0
-9 27 0
3 13 0
9 29 0
-32 -29 0
9 -27 0
-18 24 0
16 27 0
3 28 0
6 33 0
13 -23 0
31 -33 0
8 -21 0
19 -28 0
-2 -23 0
23 30 0
-35 -10 0
-8 21 0
-18 15 0
20 -25 0
-11 7 0
2 12 0
-10 18 0
32 -14 0
20 3 0
2 -14 0
14 5 0
-7 18 0
-17 -14 0
20 -22 0
14 30 0
4 -7 0
34 -5 0
-16 31 0
24 -22 0
29 -8 0
8 -15 0
9 13 0
14 -20 0
25 20 0
-19 8 0
13 -26 0
-9 -26 0
18 -27 0
-27 30 0
-23 15 0
26 -19 0
28 9 0
-23 -6 0
-7 33 0
-17 16 0
-29 27 0
-34 -26 0
-35 -26 0
-30 24 0
11 31 0
-4 -31 0
-28 -34 0
1 -23 0
33 30 0
12 20 0
19 -20 0
5 -31 0
-35 -17 0
7 26 0
15 18 0
35 6 0
1 -2 0
15 34 0
9 -21 0
22 -11 0
-28 1 0
13 7 0
14 29 0
23 26 0
-5 30 0
30 -22 0
-35 -8 0
33 -12 0
20 -21 0
1 19 0
-5 21 0
19 16 0
-12 -28 0
-21 -7 0
18 16 0
24 30 0
