c PROBLEM_035_100_43  vars=35  clausulas=100  k=2
p cnf 35 100
-12 -9 0
-1 14 0
20 -19 0
-5 24 0
33 -21 0
-24 -1 0
-13 -2 0
-35 -26 0
1 -9 0
16 22 0
-4 -14 0
35 7 0
-5 -1 0
-2 25 0
-19 26 0
10 25 0
2 -34 0
35 29 0
7 28 0
35 32 0
21 -9 0
13 -16 0
18 1 0
-6 34 0
-34 -4 0
-24 10 0
31 -14 0
35 -12 0
28 -23 0
22 8 0
28 -10 0
7 -23 0
-29 30 0
14 35 0
12 17 0
-13 -17 0
-13 -1 0
22 11 0
-7 -14 0
-1 -4 0
-7 -23 0
-8 -11 0
22 -35 0
18 -29 0
-35 -11 0
-7 5 0
1 -31 0
1 -9 0
-27 5 0
-19 -24 0
8 -9 0
18 6 0
-8 15 0
32 -25 0
35 25 0
18 16 0
-33 -9 0
4 29 0
26 -34 0
32 14 0
6 -23 0
-5 -23 0
-35 19 0
5 10 0
20 -28 0
2 34 0
-20 -7 0
-6 11 0
-4 -16 0
-21 -30 0
-26 -19 0
-7 -21 0
20 12 0
-2 12 0
24 -13 0
-31 4 0
-10 -6 0
4 11 0
3 -33 0
1 9 0
7 8 0
-18 -35 0
-9 20 0
-25 -20 0
2 19 0
-22 -13 0
31 21 0
22 19 0
16 34 0
6 -31 0
23 6 0
12 -27 0
24 -15 0
20 35 0
30 9 0
-8 -35 0
21 -9 0
17 -25 0
-1 -12 0
3 -13 0
