c PROBLEM_035_100_34  vars=35  clausulas=100  k=2
p cnf 35 100
-25 -31 0
21 6 0
9 17 0
10 27 0
-29 -26 0
11 33 0
13 1 0
32 12 0
33 20 0
16 10 0
-6 17 0
27 3 0
-10 -20 0
15 31 0
35 -31 0
8 -28 0
30 23 0
11 -25 0
-12 11 0
3 -33 0
30 -33 0
-32 -30 0
29 2 0
8 -15 0
-1 -21 0
-29 2 0
-11 -35 0
-2 31 0
-29 6 0
-16 -24 0
22 -18 0
5 -27 0
-12 -22 0
-10 12 0
-11 -22 0
20 -13 0
23 26 0
-25 16 0
8 -22 0
19 -14 0
9 -1 0
34 -24 0
-22 -30 0
-21 29 0
18 7 0
-32 -22 0
-12 -20 0
7 16 0
25 -34 0
20 4 0
35 -32 0
6 28 0
27 1 0
13 -7 0
-7 6 0
-17 -15 0
-32 1 0
2 -8 0
-4 9 0
17 29 0
20 -10 0
-31 33 0
12 -3 0
-8 -23 0
16 12 0
1 28 0
-1 16 0
-31 -25 0
-18 -24 0
32 -26 0
7 -31 0
-22 20 0
5 -16 0
-22 -32 0
24 -3 0
35 -22 0
28 14 0
-12 8 0
29 12 0
21 -8 0
34 -25 0
-22 1 0
-21 2 0
-9 16 0
31 -33 0
-30 12 0
-12 -28 0
-29 -23 0
-35 25 0
13 34 0
27 -32 0
35 -11 0
-18 -30 0
14 -32 0
-3 29 0
25 1 0
-21 -13 0
12 -33 0
-32 35 0
-32 18 0
