c PROBLEM_035_100_20  vars=35  clausulas=100  k=2
p cnf 35 100
-29 23 0
21 -6 0
2 35 0
-5 15 0
-2 -18 0
12 -7 0
-15 29 0
-3 -4 0
-14 -32 0
-23 28 0
-32 -24 0
-8 -29 0
-32 6 0
13 -22 0
-18 13 0
-4 17 0
14 -17 0
-12 -1 0
-5 12 0
-8 12 0
1 14 0
31 -4 0
-7 8 0
26 10 0
-30 9 0
-24 -15 0
24 -6 0
-7 -14 0
-28 -29 0
-12 -8 0
-30 -32 0
-28 12 0
-17 -9 0
-15 8 0
3 25 0
-19 23 0
26 3 0
-11 34 0
-34 -12 0
31 24 0
-20 11 0
-17 24 0
21 -11 0
-21 6 0
-5 15 0
-20 28 0
-3 22 0
-10 1 0
-27 33 0
-21 17 0
-35 13 0
28 24 0
16 19 0
21 34 0
7 -31 0
-9 16 0
-13 -7 0
25 -14 0
26 -31 0
-2 19 0
35 19 0
-33 34 0
33 7 0
15 -21 0
20 7 0
-32 -35 0
8 24 0
32 7 0
-10 -5 0
-9 16 0
-31 -11 0
-13 -34 0
-31 -3 0
-19 35 0
14 16 0
5 16 0
21 -2 0
-17 2 0
-19 -11 0
32 -28 0
-1 -27 0
-30 6 0
-26 8 0
-5 -13 0
-8 12 0
-31 18 0
22 -35 0
20 32 0
-1 -16 0
-26 31 0
-21 8 0
-4 14 0
-14 9 0
23 -3 0
34 -13 0
29 -32 0
-24 23 0
-6 -18 0
4 -11 0
27 -28 0
