c PROBLEM_035_100_13  vars=35  clausulas=100  k=2
p cnf 35 100
-18 35 0
12 35 0
27 -16 0
34 -35 0
-27 18 0
23 8 0
26 -21 0
-9 -12 0
-8 10 0
22 -10 0
2 17 0
-19 -13 0
-11 -19 0
32 21 0
-4 -16 0
-2 30 0
5 33 0
30 34 0
7 -6 0
-1 6 0
11 -26 0
33 -25 0
29 5 0
-18 20 0
-3 -15 0
8 -32 0
-2 3 0
-4 -8 0
29 15 0
-11 -24 0
-1 7 0
-35 27 0
-1 -2 0
21 -23 0
-13 33 0
-4 12 0
35 16 0
-27 13 0
-29 -21 0
-35 30 0
4 -9 0
-7 35 0
12 -32 0
29 -20 0
5 -15 0
23 18 0
2 10 0
24 17 0
-13 25 0
20 14 0
31 32 0
-22 26 0
-13 -2 0
-20 -33 0
-32 8 0
-21 -35 0
-35 -15 0
12 14 0
-23 -29 0
8 14 0
-4 -23 0
29 21 0
-17 -10 0
33 -17 0
30 -19 0
-6 -31 0
25 -14 0
-11 -31 0
32 31 0
15 -1 0
-29 33 0
-28 -22 0
29 3 0
-24 -6 0
34 -14 0
35 14 0
-8 25 0
9 -30 0
-15 9 0
16 -32 0
15 -5 0
-17 29 0
-28 -2 0
29 -7 0
-30 17 0
21 11 0
32 -3 0
9 13 0
23 1 0
18 34 0
16 -5 0
-5 -13 0
-15 -24 0
-27 26 0
4 -19 0
12 -6 0
-33 5 0
15 -7 0
-18 -1 0
-22 -20 0
