c PROBLEM_035_100_14  vars=35  clausulas=100  k=2
p cnf 35 100
-5 25 0
-33 -1 0
7 9 0
-28 16 0
15 -3 0
13 19 0
12 30 0
-32 -17 0
-18 -1 0
10 -26 0
14 25 0
-5 -16 0
-19 29 0
1 -34 0
-21 -7 0
-5 20 0
23 33 0
29 25 0
26 21 0
-29 -14 0
-28 8 0
4 -24 0
-16 -8 0
23 -21 0
-8 28 0
-24 -22 0
-31 -4 0
33 -28 0
27 30 0
26 -24 0
18 -21 0
22 21 0
5 24 0
-16 26 0
-27 -8 0
-28 -20 0
-35 -2 0
31 -28 0
-11 -12 0
-18 31 0
-5 9 0
-18 25 0
21 24 0
1 2 0
10 -9 0
-34 -5 0
-11 -1 0
-26 -2 0
32 -7 0
21 -1 0
-30 32 0
-35 -18 0
16 -1 0
-17 11 0
-29 -28 0
-23 33 0
-22 -24 0
-11 -24 0
25 -7 0
-35 -32 0
23 16 0
-18 -35 0
27 32 0
-29 -30 0
25 -35 0
-14 -26 0
-9 -19 0
-23 -7 0
22 5 0
32 1 0
11 -32 0
-16 26 0
23 6 0
-12 9 0
13 -17 0
32 -17 0
-12 -26 0
34 -24 0
-7 -22 0
-22 -31 0
-22 -7 0
-26 -9 0
-17 -35 0
21 -30 0
11 -17 0
6 -3 0
-19 8 0
-23 3 0
5 15 0
34 -35 0
1 -35 0
15 16 0
15 31 0
-20 -35 0
1 14 0
34 12 0
-16 29 0
-24 32 0
-14 3 0
-16 29 0
