c PROBLEM_035_100_24  vars=35  clausulas=100  k=2
p cnf 35 100
33 27 0
-34 7 0
-10 -3 0
-14 -15 0
-6 2 0
-29 31 0
-32 -7 0
8 7 0
-22 -21 0
31 -28 0
-19 17 0
1 -22 0
15 -5 0
-23 10 0
6 -9 0
22 18 0
-15 2 0
-12 -24 0
19 -20 0
-32 34 0
20 22 0
11 -6 0
-29 -8 0
2 -23 0
10 22 0
4 26 0
-5 7 0
-9 -24 0
-35 -20 0
11 21 0
-22 -1 0
-10 23 0
22 -34 0
-7 -20 0
-22 -33 0
-20 -23 0
-20 -29 0
-20 -33 0
-32 -5 0
23 33 0
-15 -33 0
-27 -29 0
-3 -8 0
2 32 0
32 17 0
-5 -28 0
31 -26 0
-23 27 0
21 34 0
31 -7 0
-22 -31 0
4 18 0
10 -31 0
-25 -20 0
10 -22 0
-1 13 0
-5 19 0
4 -29 0
-13 -17 0
-29 15 0
-4 21 0
-21 -8 0
-22 -26 0
15 16 0
4 -5 0
8 -19 0
-35 11 0
-24 -10 0
-1 -12 0
-8 20 0
3 10 0
7 4 0
-34 -1 0
-23 5 0
-6 14 0
23 -12 0
-12 26 0
30 -15 0
-17 18 0
-26 -19 0
4 25 0
-21 -26 0
10 3 0
-28 12 0
-22 3 0
26 -19 0
26 -17 0
-33 -26 0
27 -29 0
-4 -19 0
2 7 0
-4 20 0
-10 35 0
12 -7 0
-33 6 0
12 -26 0
-12 -35 0
-33 -25 0
-31 -29 0
-28 34 0
