c PROBLEM_035_100_08  vars=35  clausulas=100  k=2
p cnf 35 100
-9 -19 0
-29 -31 0
32 -19 0
27 9 0
5 10 0
-8 -1 0
-7 23 0
-1 -11 0
2 -17 0
-25 10 0
-1 -23 0
-32 -2 0
-32 35 0
-5 22 0
-17 -14 0
-20 35 0
16 -3 0
-16 32 0
-33 -6 0
-15 14 0
8 19 0
19 16 0
25 34 0
-21 -25 0
17 -32 0
-21 15 0
-12 18 0
34 8 0
-25 -28 0
11 30 0
-28 15 0
5 -16 0
-17 14 0
13 17 0
27 10 0
11 -8 0
17 -14 0
24 20 0
-34 -13 0
-4 13 0
-10 -14 0
21 24 0
9 12 0
32 -29 0
-31 -4 0
10 12 0
-23 15 0
-30 -28 0
35 -34 0
29 -34 0
5 -2 0
-20 -27 0
27 3 0
3 -31 0
-4 -24 0
22 11 0
-22 -18 0
-15 10 0
-23 33 0
11 -22 0
3 -5 0
-12 -1 0
-7 25 0
-17 34 0
29 15 0
25 21 0
-10 23 0
25 -21 0
-22 -23 0
12 -2 0
-5 18 0
5 30 0
34 -4 0
-27 26 0
-34 -4 0
-22 -3 0
28 10 0
-21 -24 0
-18 23 0
-16 -11 0
12 28 0
-6 -2 0
-12 -14 0
14 17 0
-14 21 0
-35 1 0
4 -17 0
-21 -24 0
7 17 0
-19 -16 0
-10 8 0
-29 23 0
-5 -6 0
2 27 0
-23 -19 0
29 34 0
-28 -31 0
25 -10 0
-6 -8 0
20 1 0
