c PROBLEM_035_100_36  vars=35  clausulas=100  k=2
p cnf 35 100
-2 -24 0
-18 -25 0
5 32 0
-13 -10 0
-26 -31 0
-15 -14 0
-31 -35 0
-33 -1 0
20 -21 0
-3 -2 0
-8 13 0
30 -1 0
-29 -11 0
11 29 0
22 9 0
20 12 0
-17 -11 0
-26 23 0
13 -10 0
-1 11 0
27 -14 0
21 31 0
-22 34 0
24 27 0
-6 27 0
20 9 0
10 -28 0
9 -28 0
3 16 0
16 -28 0
32 15 0
30 -35 0
16 18 0
-31 21 0
26 7 0
5 24 0
24 -33 0
23 34 0
7 15 0
-32 17 0
-4 24 0
32 2 0
-12 7 0
-11 -14 0
10 -15 0
-10 -21 0
14 11 0
-7 22 0
8 -31 0
-2 4 0
18 6 0
1 -28 0
22 13 0
-6 19 0
10 25 0
-2 28 0
26 11 0
26 17 0
-19 14 0
-25 23 0
4 -6 0
25 1 0
32 -34 0
18 6 0
-18 13 0
8 -2 0
-24 -4 0
-2 -7 0
15 -17 0
-26 -28 0
-30 -3 0
19 -34 0
34 18 0
20 -13 0
31 10 0
33 6 0
25 -9 0
33 11 0
-35 25 0
29 27 0
-21 -23 0
4 28 0
-21 17 0
33 6 0
-10 -28 0
-15 -34 0
-11 -25 0
-26 20 0
21 -10 0
-34 -6 0
32 -13 0
-3 32 0
-11 28 0
3 20 0
-30 14 0
-5 -14 0
8 5 0
26 9 0
26 17 0
-29 4 0
