c PROBLEM_035_100_33  vars=35  clausulas=100  k=2
p cnf 35 100
-10 -3 0
-8 2 0
21 -13 0
-2 -6 0
35 -28 0
-2 23 0
-21 -1 0
-28 -24 0
17 -24 0
-8 -22 0
21 -28 0
14 -31 0
12 26 0
13 22 0
-3 1 0
-7 -1 0
29 31 0
27 -16 0
15 3 0
20 17 0
3 34 0
8 -28 0
7 25 0
10 25 0
31 -27 0
-11 9 0
-20 -30 0
34 -4 0
-27 -21 0
31 -1 0
-4 -1 0
35 -27 0
-8 -13 0
-23 15 0
11 -10 0
-3 12 0
32 24 0
-29 12 0
-9 -28 0
-33 11 0
9 -11 0
9 -35 0
-31 29 0
32 28 0
33 -31 0
-6 -3 0
31 11 0
21 -22 0
-27 10 0
19 11 0
34 23 0
-15 -23 0
6 -10 0
27 -1 0
-24 -25 0
2 -12 0
1 -26 0
4 -18 0
13 -7 0
6 -34 0
-31 -35 0
-26 -24 0
27 -4 0
-16 21 0
-13 16 0
16 29 0
-30 12 0
-13 -28 0
-32 -18 0
6 -2 0
34 -14 0
24 28 0
7 6 0
-9 -21 0
-28 -15 0
-9 -13 0
-24 31 0
-18 -31 0
14 24 0
-17 28 0
7 -5 0
-5 12 0
-28 -11 0
-14 -32 0
34 4 0
5 35 0
-17 35 0
-26 28 0
-24 -10 0
-25 -15 0
17 -21 0
35 25 0
12 -26 0
17 -15 0
-32 27 0
-14 -31 0
-33 -16 0
-17 -13 0
-6 -9 0
5 18 0
