c PROBLEM_035_100_27  vars=35  clausulas=100  k=2
p cnf 35 100
-9 -22 0
21 35 0
-16 -19 0
-30 -23 0
-28 3 0
15 11 0
20 -4 0
-6 -14 0
-16 5 0
-35 -20 0
-8 -5 0
-31 12 0
-19 21 0
-19 17 0
-25 27 0
23 14 0
-31 2 0
-16 -33 0
-5 -25 0
-15 9 0
-9 19 0
34 22 0
34 -24 0
-9 33 0
-2 -6 0
-26 8 0
32 -10 0
3 23 0
26 33 0
-27 33 0
15 22 0
20 -17 0
-21 20 0
4 -13 0
-3 -4 0
32 35 0
-19 3 0
19 -35 0
-34 30 0
12 9 0
31 35 0
25 8 0
16 -22 0
33 1 0
32 22 0
-4 18 0
26 -2 0
30 19 0
14 3 0
-24 -13 0
-28 22 0
-2 30 0
-7 5 0
-18 -26 0
-32 1 0
14 11 0
-31 9 0
-33 10 0
1 -3 0
-4 -29 0
-32 34 0
11 30 0
-29 31 0
-22 20 0
-17 -22 0
-20 -28 0
32 -29 0
24 18 0
-14 35 0
18 25 0
-17 12 0
-33 19 0
35 -17 0
5 7 0
-6 -2 0
23 31 0
27 1 0
31 -35 0
-17 20 0
17 25 0
18 -28 0
-15 -7 0
7 14 0
-15 -5 0
-30 -10 0
2 6 0
6 -23 0
-6 10 0
26 -21 0
22 27 0
-9 10 0
22 9 0
-14 -23 0
13 -15 0
26 15 0
24 -14 0
9 -28 0
-24 -26 0
14 -5 0
-12 -19 0
