c PROBLEM_035_100_29  vars=35  clausulas=100  k=2
p cnf 35 100
-34 -7 0
-35 -21 0
-22 -16 0
-7 -23 0
-24 -14 0
-15 23 0
29 10 0
29 -27 0
-22 -9 0
-8 34 0
-26 -34 0
-32 28 0
26 -19 0
35 21 0
24 -4 0
-9 20 0
8 18 0
17 -5 0
2 -30 0
-21 -13 0
5 -33 0
25 2 0
-4 34 0
-16 -28 0
34 7 0
26 27 0
17 27 0
-17 23 0
3 -34 0
-23 -17 0
32 -3 0
2 13 0
-2 -27 0
-30 33 0
-9 13 0
11 26 0
-15 -9 0
16 -28 0
13 -30 0
29 31 0
6 -26 0
12 -23 0
-28 -7 0
22 23 0
27 10 0
-24 27 0
-11 -29 0
2 14 0
15 13 0
19 11 0
5 -3 0
17 -3 0
11 16 0
15 -17 0
-19 -20 0
8 -16 0
-23 14 0
5 8 0
14 11 0
34 33 0
-32 4 0
-7 -15 0
7 1 0
-16 18 0
-31 -29 0
29 -33 0
-3 -18 0
-7 34 0
-18 -21 0
2 -17 0
-20 26 0
24 -8 0
-14 8 0
30 -28 0
2 -29 0
-8 31 0
34 -6 0
7 -21 0
-11 -14 0
-16 21 0
12 3 0
9 -33 0
-19 2 0
-9 -33 0
-19 25 0
15 25 0
6 -7 0
-23 31 0
-27 1 0
-6 -3 0
-2 4 0
-6 15 0
-5 -3 0
-32 35 0
-23 33 0
-17 15 0
12 -32 0
-2 31 0
-12 32 0
31 -18 0
