c PROBLEM_040_070_10  vars=40  clausulas=70  k=2
p cnf 40 70
18 -13 0
1 29 0
-36 -21 0
9 -6 0
15 22 0
-2 -27 0
-14 -38 0
35 -33 0
30 26 0
34 38 0
11 9 0
-31 -1 0
-6 37 0
18 26 0
-30 -20 0
11 29 0
5 -24 0
-19 7 0
17 -32 0
-20 -26 0
17 -20 0
15 31 0
-19 11 0
5 38 0
39 2 0
9 -36 0
-38 6 0
35 -24 0
-32 14 0
20 -17 0
-17 12 0
-35 5 0
-6 -36 0
25 -10 0
24 36 0
-3 7 0
31 -32 0
16 -15 0
5 4 0
13 7 0
14 3 0
7 -13 0
7 -32 0
13 -24 0
-27 40 0
14 15 0
17 31 0
-18 -2 0
-1 -25 0
-39 10 0
-34 -3 0
-37 3 0
12 -31 0
38 19 0
-14 34 0
-7 36 0
33 -7 0
14 27 0
-23 18 0
28 -5 0
10 32 0
37 26 0
8 36 0
2 -23 0
5 -24 0
-5 8 0
26 -7 0
-8 -27 0
35 11 0
40 -39 0
