c PROBLEM_040_070_49  vars=40  clausulas=70  k=2
p cnf 40 70
32 -37 0
-7 31 0
-21 -7 0
11 -5 0
14 20 0
24 20 0
-14 34 0
36 38 0
38 -11 0
-6 9 0
35 -13 0
6 -18 0
36 -15 0
32 9 0
14 28 0
2 4 0
-23 30 0
-27 13 0
25 -15 0
24 33 0
10 -4 0
-8 10 0
-29 -22 0
-31 21 0
38 16 0
-15 14 0
-38 40 0
-7 -22 0
35 -3 0
-7 -21 0
-2 -21 0
8 40 0
29 14 0
19 35 0
-5 34 0
29 15 0
-24 -35 0
-19 30 0
20 -3 0
-7 24 0
28 -12 0
33 -28 0
-33 22 0
-1 -11 0
-32 18 0
-14 -9 0
-5 21 0
12 14 0
-17 -10 0
16 1 0
14 27 0
-22 32 0
31 -37 0
21 14 0
-33 -27 0
27 6 0
5 -26 0
-26 -23 0
12 -1 0
22 -14 0
-28 14 0
-16 25 0
-40 14 0
-28 10 0
-24 38 0
-6 -13 0
-35 3 0
13 17 0
14 -39 0
-39 -26 0
