c PROBLEM_040_070_41  vars=40  clausulas=70  k=2
p cnf 40 70
11 -25 0
3 36 0
6 -24 0
24 27 0
-18 -31 0
-1 -38 0
-35 30 0
20 36 0
23 30 0
-30 6 0
3 -1 0
39 -23 0
17 40 0
-29 -33 0
-20 -31 0
-11 1 0
34 -27 0
-9 -6 0
-29 31 0
-16 24 0
-34 -27 0
12 19 0
5 2 0
-15 39 0
34 -25 0
-36 7 0
21 4 0
23 -34 0
26 2 0
35 -33 0
24 -38 0
-37 29 0
32 1 0
27 18 0
26 -40 0
39 6 0
23 33 0
4 23 0
-13 -15 0
28 20 0
8 2 0
14 12 0
29 -2 0
22 3 0
31 4 0
39 29 0
10 -18 0
-26 17 0
17 -35 0
-12 -39 0
-28 -31 0
40 -8 0
-5 -38 0
-29 -33 0
40 -35 0
29 18 0
35 25 0
33 -37 0
-9 12 0
-2 11 0
-20 -39 0
-40 21 0
-32 -17 0
20 34 0
-24 11 0
30 -12 0
30 8 0
1 -38 0
-13 1 0
28 -22 0
