c PROBLEM_040_070_15  vars=40  clausulas=70  k=2
p cnf 40 70
-9 -25 0
31 40 0
-5 38 0
-30 -14 0
-8 -11 0
-15 -3 0
-18 -16 0
-5 30 0
23 -9 0
-7 9 0
-27 11 0
18 -30 0
15 14 0
-40 35 0
36 -17 0
-34 24 0
18 27 0
21 -5 0
23 -34 0
23 12 0
-6 30 0
38 -3 0
20 -25 0
24 39 0
-28 -1 0
2 6 0
-38 -24 0
-10 -33 0
-20 4 0
37 -23 0
35 -34 0
4 24 0
-37 7 0
23 39 0
-5 -2 0
13 25 0
-37 7 0
-26 -19 0
24 -17 0
30 32 0
30 23 0
9 -22 0
31 38 0
33 -24 0
36 -27 0
-36 -12 0
30 -2 0
-4 2 0
-8 26 0
20 -13 0
-32 15 0
-13 8 0
-21 -5 0
20 23 0
-39 -18 0
18 9 0
-19 -17 0
24 34 0
-39 -10 0
15 3 0
38 -2 0
-39 20 0
-10 -19 0
-38 32 0
-17 10 0
-25 35 0
-22 26 0
-8 -37 0
-34 29 0
29 -36 0
