c PROBLEM_040_070_16  vars=40  clausulas=70  k=2
p cnf 40 70
15 -22 0
4 -38 0
-40 -6 0
7 -34 0
38 31 0
3 9 0
-12 3 0
26 -2 0
-4 19 0
28 -8 0
7 -32 0
-37 7 0
-15 -22 0
30 33 0
-22 -39 0
-25 -22 0
39 -23 0
21 25 0
38 1 0
19 4 0
25 15 0
-14 20 0
-19 -40 0
17 14 0
4 -36 0
-2 35 0
-33 -7 0
-20 8 0
11 -29 0
-27 -30 0
-34 17 0
16 -31 0
2 -27 0
30 -23 0
-5 -20 0
-22 -31 0
15 -7 0
40 23 0
-3 -37 0
13 36 0
26 28 0
-28 -25 0
31 -20 0
-22 15 0
10 15 0
-11 -25 0
-8 -40 0
32 30 0
-3 8 0
-21 -12 0
40 21 0
-25 -16 0
-31 -6 0
2 40 0
-17 -14 0
-40 24 0
27 -39 0
34 -5 0
-10 -12 0
2 -34 0
1 9 0
-14 25 0
11 27 0
34 -21 0
-28 29 0
39 -14 0
12 -5 0
40 18 0
1 17 0
31 -25 0
