c PROBLEM_040_070_46  vars=40  clausulas=70  k=2
p cnf 40 70
28 36 0
-36 17 0
-2 12 0
-5 -14 0
-3 -7 0
-33 32 0
-16 17 0
-35 12 0
-35 -38 0
-27 10 0
-21 3 0
-30 23 0
-18 39 0
20 27 0
26 18 0
8 6 0
-13 22 0
12 32 0
1 37 0
24 28 0
-1 -2 0
34 36 0
-35 -22 0
-21 4 0
-23 -11 0
22 -14 0
-26 -8 0
40 35 0
40 -17 0
6 -15 0
25 23 0
36 -6 0
-20 31 0
-36 3 0
-3 -5 0
21 32 0
18 16 0
11 -12 0
-28 15 0
-29 -11 0
3 5 0
19 27 0
-9 -7 0
35 -26 0
29 -9 0
-26 -31 0
10 4 0
37 -36 0
16 13 0
19 33 0
-20 -36 0
33 -29 0
-3 16 0
-31 12 0
18 -29 0
-8 -12 0
30 -29 0
-38 3 0
15 -27 0
-7 -19 0
38 30 0
15 -18 0
-6 32 0
8 -5 0
-40 -13 0
-26 10 0
19 -22 0
-16 13 0
-10 -37 0
-6 -39 0
