c PROBLEM_040_070_26  vars=40  clausulas=70  k=2
p cnf 40 70
14 -6 0
33 -13 0
-33 22 0
23 -15 0
-24 21 0
-13 2 0
-32 -2 0
-10 -7 0
-37 14 0
38 35 0
-12 -39 0
-31 33 0
-9 1 0
17 -39 0
-38 6 0
-36 -37 0
3 15 0
38 -21 0
11 -27 0
40 -2 0
-32 18 0
-15 17 0
17 -11 0
20 24 0
-37 11 0
39 -7 0
-20 -18 0
-35 32 0
-22 -27 0
15 -39 0
15 12 0
-27 -28 0
-25 6 0
7 -26 0
-3 -26 0
22 -3 0
-4 1 0
10 -36 0
-37 -15 0
-18 16 0
-35 8 0
-29 -1 0
13 -33 0
-23 -30 0
-17 -23 0
-22 33 0
-2 30 0
-2 37 0
32 -25 0
37 -5 0
-37 -40 0
13 -28 0
10 -15 0
15 14 0
34 -4 0
-29 23 0
34 38 0
-35 -24 0
16 -17 0
34 30 0
29 -15 0
-9 19 0
-10 -6 0
-19 -27 0
24 -18 0
8 5 0
-31 -22 0
37 18 0
-31 38 0
14 12 0
