c PROBLEM_040_070_47  vars=40  clausulas=70  k=2
p cnf 40 70
-36 16 0
-28 -17 0
20 -3 0
29 13 0
24 25 0
-2 -23 0
8 -22 0
-38 36 0
-25 10 0
24 -27 0
26 4 0
-27 36 0
30 16 0
35 9 0
18 -12 0
-15 -21 0
3 33 0
-40 14 0
37 6 0
-38 3 0
-34 13 0
33 -14 0
1 8 0
38 3 0
-2 -16 0
-1 30 0
30 -2 0
-15 17 0
-5 -12 0
-19 -37 0
-21 30 0
21 -26 0
-15 35 0
19 1 0
-35 31 0
11 31 0
32 -20 0
3 13 0
-11 37 0
-22 2 0
-16 -37 0
-10 1 0
-15 1 0
-2 26 0
36 5 0
-40 -37 0
-36 8 0
-20 18 0
-35 -33 0
-7 30 0
11 34 0
-4 1 0
10 39 0
-33 -31 0
-32 -24 0
19 -31 0
35 20 0
-35 15 0
15 31 0
-18 5 0
17 -33 0
10 9 0
-21 8 0
12 32 0
-40 27 0
31 -28 0
-29 3 0
25 -29 0
19 26 0
34 -28 0
