c PROBLEM_040_070_32  vars=40  clausulas=70  k=2
p cnf 40 70
4 10 0
9 -7 0
-19 -37 0
15 30 0
18 2 0
22 23 0
36 32 0
-21 -24 0
-8 -5 0
-11 34 0
-9 21 0
-22 33 0
22 36 0
28 -22 0
-10 33 0
-10 13 0
-21 24 0
-12 -38 0
19 6 0
-32 -25 0
-26 -16 0
40 -31 0
13 -36 0
25 2 0
21 -38 0
-23 24 0
-23 21 0
-17 28 0
1 9 0
36 7 0
-18 25 0
3 22 0
33 -34 0
-18 -2 0
2 -6 0
1 -8 0
-22 29 0
39 -25 0
26 4 0
-13 -21 0
9 -16 0
17 -28 0
-12 15 0
15 -33 0
30 -6 0
-21 -32 0
-27 20 0
26 -16 0
-28 -7 0
-24 18 0
-34 1 0
8 -7 0
-32 -25 0
18 40 0
25 -17 0
-37 35 0
-27 -21 0
-39 15 0
11 -1 0
12 13 0
28 27 0
-37 16 0
40 18 0
11 -8 0
38 -25 0
38 -29 0
5 -13 0
-17 -11 0
-1 12 0
10 -14 0
