c PROBLEM_040_070_09  vars=40  clausulas=70  k=2
p cnf 40 70
22 -19 0
19 -3 0
32 5 0
-34 40 0
-12 3 0
24 -38 0
36 -25 0
-35 -8 0
36 34 0
23 34 0
29 -9 0
-35 10 0
40 -31 0
27 -35 0
39 -18 0
34 -9 0
-17 37 0
-33 -12 0
-39 -14 0
-25 34 0
5 -14 0
-25 18 0
-30 -16 0
23 -22 0
19 9 0
-5 -40 0
13 -15 0
-20 -31 0
-22 -6 0
-9 -33 0
10 -14 0
-32 5 0
31 36 0
-29 2 0
10 -21 0
-30 35 0
8 -1 0
39 3 0
-20 -4 0
12 -7 0
-37 -27 0
-30 8 0
25 -33 0
5 19 0
38 -3 0
-40 15 0
-32 -29 0
-40 12 0
39 18 0
1 -21 0
-4 38 0
-34 -14 0
-22 -40 0
24 -28 0
-20 26 0
-31 37 0
-23 -13 0
1 26 0
21 -33 0
-40 33 0
12 -29 0
11 4 0
30 -28 0
7 -21 0
-4 32 0
-13 -11 0
-15 -24 0
2 11 0
16 37 0
2 12 0
