c PROBLEM_040_070_44  vars=40  clausulas=70  k=2
p cnf 40 70
-39 -38 0
-17 33 0
-39 32 0
39 14 0
17 2 0
14 17 0
-29 -2 0
-10 -18 0
-3 25 0
-11 12 0
33 -5 0
-33 -15 0
-19 -20 0
-40 36 0
-13 31 0
28 -21 0
29 5 0
-33 20 0
14 -37 0
-40 4 0
10 -32 0
-7 19 0
21 40 0
-6 -34 0
31 17 0
1 35 0
-25 8 0
30 -15 0
37 36 0
3 -25 0
-1 -19 0
-11 40 0
-37 -1 0
15 -36 0
-21 9 0
23 -12 0
27 -7 0
-22 -35 0
37 -33 0
32 21 0
23 -22 0
-2 10 0
20 21 0
7 -3 0
12 22 0
15 11 0
18 11 0
-26 -7 0
-35 2 0
4 -34 0
18 30 0
31 33 0
27 8 0
16 -24 0
-33 12 0
34 -26 0
6 7 0
2 -1 0
-20 2 0
28 -26 0
4 -33 0
-21 -11 0
14 -11 0
40 33 0
37 -15 0
27 16 0
19 -16 0
-29 31 0
23 -22 0
38 15 0
