c PROBLEM_040_070_06  vars=40  clausulas=70  k=2
p cnf 40 70
-37 -38 0
31 -28 0
-26 35 0
-3 1 0
-31 -24 0
4 7 0
-4 -21 0
26 17 0
30 -33 0
21 -4 0
-18 -34 0
26 29 0
-26 -28 0
-27 -4 0
38 -34 0
-11 3 0
-30 19 0
3 -31 0
3 -20 0
9 -10 0
19 -34 0
21 -3 0
37 36 0
18 -26 0
-28 23 0
-14 18 0
-5 -32 0
-8 -17 0
16 38 0
14 -27 0
-29 7 0
27 34 0
-29 -36 0
-28 38 0
-16 -29 0
5 -35 0
-19 -10 0
-6 -40 0
34 -16 0
14 18 0
17 -36 0
-38 -12 0
-7 16 0
-31 -4 0
-24 -26 0
2 -39 0
-14 -11 0
5 -1 0
-30 -14 0
14 19 0
37 -15 0
2 -31 0
29 22 0
-5 -25 0
8 -1 0
20 21 0
-22 -4 0
-37 -36 0
10 7 0
28 -19 0
32 -15 0
-11 -25 0
-27 -20 0
-17 35 0
-2 -10 0
28 21 0
8 27 0
13 -7 0
-33 -39 0
12 -17 0
