c PROBLEM_040_070_40  vars=40  clausulas=70  k=2
p cnf 40 70
-12 -27 0
2 -29 0
-29 22 0
33 -6 0
17 -34 0
-24 17 0
-7 -34 0
-7 -19 0
27 39 0
37 -22 0
-10 -40 0
29 -13 0
-7 26 0
3 -24 0
9 -28 0
22 36 0
-35 -33 0
19 20 0
-18 38 0
-7 -12 0
-34 -14 0
-26 32 0
-31 21 0
-7 -8 0
3 23 0
21 30 0
18 -29 0
-34 -33 0
3 4 0
13 -15 0
16 18 0
1 37 0
28 36 0
20 -12 0
-34 37 0
-2 -11 0
19 28 0
7 -39 0
2 13 0
6 34 0
39 11 0
-3 -5 0
4 36 0
33 -25 0
4 -22 0
2 -3 0
17 -11 0
7 -6 0
32 -12 0
6 -40 0
14 2 0
-5 -19 0
-1 -29 0
-23 -8 0
-13 31 0
10 18 0
3 7 0
-16 27 0
40 4 0
7 -39 0
-7 -40 0
5 10 0
-15 11 0
-33 -18 0
-26 -5 0
-20 33 0
34 10 0
-10 -12 0
-12 -17 0
25 26 0
