c PROBLEM_040_070_11  vars=40  clausulas=70  k=2
p cnf 40 70
-25 29 0
15 -4 0
11 -39 0
-19 -22 0
-12 24 0
-32 36 0
16 -13 0
21 -7 0
26 -33 0
3 -18 0
36 -25 0
39 2 0
-26 13 0
-38 -26 0
-13 -6 0
-31 37 0
-33 36 0
-40 -20 0
-1 7 0
39 21 0
33 -31 0
8 -31 0
38 24 0
38 2 0
-8 -10 0
20 12 0
-26 -30 0
-6 -9 0
-13 -22 0
8 -4 0
-27 -29 0
-38 -32 0
5 14 0
17 15 0
39 24 0
-2 34 0
-9 12 0
-13 17 0
7 20 0
-4 -19 0
-22 23 0
-34 -21 0
-26 21 0
22 -39 0
29 -35 0
-3 15 0
-23 -26 0
-19 39 0
-14 16 0
39 34 0
22 -35 0
14 4 0
31 28 0
-23 -2 0
14 -27 0
-23 -20 0
30 -23 0
12 -35 0
-26 14 0
-32 4 0
-17 25 0
-37 -24 0
10 -31 0
-3 -35 0
35 17 0
11 5 0
-40 -37 0
35 -6 0
28 4 0
-17 -23 0
