c PROBLEM_040_070_01  vars=40  clausulas=70  k=2
p cnf 40 70
-9 21 0
-8 40 0
-40 37 0
-15 35 0
-33 -32 0
3 15 0
-32 23 0
5 -17 0
2 -11 0
35 25 0
4 -36 0
-26 19 0
-28 2 0
-33 -23 0
-9 -10 0
-22 -36 0
-22 40 0
20 28 0
34 36 0
-25 -31 0
13 -5 0
19 -2 0
3 28 0
-30 -18 0
-16 -28 0
-31 -30 0
2 38 0
-1 37 0
35 -27 0
24 -6 0
-28 18 0
-4 -11 0
2 -12 0
-1 6 0
-27 -23 0
-40 12 0
-12 15 0
39 14 0
28 6 0
-19 -37 0
23 24 0
3 22 0
35 18 0
35 23 0
28 26 0
7 11 0
13 -17 0
-23 -34 0
11 14 0
21 8 0
-38 14 0
-40 39 0
-15 14 0
-4 25 0
38 16 0
18 -20 0
8 -19 0
-8 22 0
-6 7 0
33 38 0
-24 -1 0
30 37 0
-26 -40 0
-28 -14 0
14 -26 0
-12 -29 0
18 24 0
-33 -11 0
-30 -26 0
7 -26 0
