c PROBLEM_040_070_14  vars=40  clausulas=70  k=2
p cnf 40 70
-39 2 0
-11 27 0
-26 -12 0
-26 14 0
13 29 0
13 -12 0
13 20 0
16 3 0
3 14 0
-35 -17 0
-21 -38 0
-36 29 0
-7 -30 0
-18 -26 0
29 -23 0
-9 36 0
-34 28 0
-29 26 0
23 -4 0
-36 22 0
37 -1 0
40 31 0
31 5 0
-32 39 0
25 -34 0
-2 12 0
-25 4 0
2 -12 0
23 9 0
29 4 0
-19 -14 0
5 37 0
1 27 0
-30 25 0
-26 31 0
21 40 0
13 35 0
-20 35 0
10 -35 0
21 -5 0
40 33 0
33 27 0
9 13 0
-34 -33 0
3 2 0
10 27 0
6 -10 0
-38 -5 0
-36 -27 0
-28 12 0
-9 -8 0
-20 4 0
35 24 0
-6 39 0
15 -32 0
-27 -33 0
-34 37 0
23 24 0
38 14 0
-22 18 0
13 39 0
-30 -18 0
-40 -37 0
5 -31 0
9 -29 0
-11 10 0
12 -28 0
-33 -39 0
20 -21 0
37 -6 0
