c PROBLEM_040_070_31  vars=40  clausulas=70  k=2
p cnf 40 70
-20 13 0
38 19 0
11 7 0
13 -1 0
-31 -28 0
-7 19 0
-29 21 0
-27 -24 0
-13 30 0
10 30 0
-13 14 0
10 27 0
4 -29 0
4 11 0
25 -13 0
23 38 0
-3 23 0
32 12 0
-27 13 0
-40 28 0
16 35 0
28 -27 0
31 28 0
-24 8 0
32 9 0
36 18 0
5 -14 0
-25 13 0
-14 39 0
-3 -26 0
1 7 0
4 19 0
15 18 0
28 37 0
-26 -10 0
30 14 0
-32 3 0
36 28 0
19 -15 0
4 3 0
-20 -14 0
-22 32 0
-8 -11 0
27 -7 0
-25 13 0
17 -23 0
-18 -29 0
-5 26 0
35 -31 0
35 19 0
-25 28 0
-9 20 0
-26 15 0
25 -2 0
-16 2 0
-33 -3 0
-29 -34 0
-26 24 0
-6 -24 0
27 2 0
33 39 0
-34 -6 0
-3 26 0
-28 20 0
-40 -6 0
23 -33 0
1 -23 0
-39 21 0
10 -5 0
11 -38 0
