c PROBLEM_040_070_12  vars=40  clausulas=70  k=2
p cnf 40 70
-14 1 0
-11 -37 0
-32 -37 0
-5 -11 0
-11 -1 0
-11 -13 0
-18 22 0
-18 -25 0
-13 -20 0
-12 -16 0
40 -15 0
-16 -39 0
13 20 0
19 -1 0
22 -29 0
24 -19 0
3 30 0
-33 -18 0
38 -10 0
12 33 0
-7 -15 0
3 -19 0
-27 -8 0
-17 3 0
10 -7 0
-20 -2 0
4 -3 0
-21 28 0
3 7 0
5 -14 0
-36 -5 0
11 30 0
-30 -22 0
-23 -40 0
12 32 0
25 -38 0
23 -32 0
-34 17 0
-35 -9 0
20 -21 0
17 22 0
14 36 0
-4 24 0
2 11 0
-35 -31 0
-4 40 0
26 -39 0
-17 -38 0
-20 22 0
38 20 0
-2 -4 0
-28 -34 0
-6 -14 0
-26 -13 0
16 29 0
-30 20 0
37 39 0
-37 -2 0
-7 27 0
25 -40 0
-17 24 0
8 17 0
7 -1 0
-12 -10 0
34 23 0
-15 -36 0
-8 7 0
26 23 0
4 -2 0
2 -1 0
