c PROBLEM_040_070_28  vars=40  clausulas=70  k=2
p cnf 40 70
-23 -18 0
30 -21 0
-34 31 0
-34 29 0
-23 -26 0
22 13 0
13 37 0
12 -2 0
27 10 0
-15 -28 0
-6 -36 0
-4 -11 0
-25 -34 0
-23 -30 0
-30 -31 0
-23 22 0
-29 -25 0
9 5 0
-23 -20 0
-3 28 0
11 5 0
-18 10 0
5 -19 0
23 14 0
-33 26 0
-25 -1 0
-13 40 0
-15 -33 0
-26 24 0
12 -9 0
9 -5 0
-4 -29 0
-29 -38 0
14 21 0
-30 28 0
-23 19 0
-4 -21 0
-28 -22 0
21 36 0
37 -31 0
-14 3 0
-34 5 0
-35 -11 0
-19 1 0
-32 3 0
-32 31 0
30 -10 0
-39 -38 0
20 -31 0
-1 37 0
-7 38 0
2 -19 0
-7 -9 0
38 17 0
-37 -23 0
10 5 0
18 -6 0
-35 -10 0
-20 -1 0
-36 40 0
-1 -18 0
40 -15 0
4 -29 0
-35 -16 0
-14 -2 0
-20 8 0
15 -28 0
8 37 0
33 -27 0
-2 -23 0
