c PROBLEM_040_070_25  vars=40  clausulas=70  k=2
p cnf 40 70
-33 8 0
-23 -3 0
-19 -13 0
-2 9 0
23 -24 0
-24 6 0
35 -4 0
-3 -36 0
22 40 0
4 -39 0
30 17 0
39 -15 0
-24 4 0
-35 24 0
-21 -33 0
39 -19 0
-13 39 0
36 -38 0
-29 6 0
-2 -38 0
-6 -29 0
14 5 0
-23 -16 0
-22 20 0
3 8 0
15 25 0
-25 35 0
7 10 0
-14 -33 0
5 28 0
30 1 0
-20 -12 0
-5 6 0
-26 20 0
32 15 0
-6 18 0
34 -31 0
40 -39 0
2 35 0
-25 -8 0
14 18 0
19 -18 0
-9 -5 0
11 -10 0
4 32 0
3 30 0
28 27 0
-7 -11 0
18 24 0
-23 13 0
-10 -23 0
21 -31 0
29 28 0
-31 6 0
15 23 0
10 -34 0
-17 30 0
37 -20 0
-7 14 0
-33 -40 0
-29 -9 0
-25 -34 0
-12 8 0
26 -5 0
-16 13 0
20 -8 0
-36 -13 0
-10 -40 0
-30 -37 0
10 40 0
