c PROBLEM_040_070_37  vars=40  clausulas=70  k=2
p cnf 40 70
-14 3 0
24 31 0
-1 4 0
7 29 0
-32 -16 0
31 -23 0
7 38 0
28 -31 0
22 -36 0
27 -12 0
-17 -22 0
-34 4 0
36 16 0
29 34 0
-8 1 0
4 -9 0
-6 -15 0
-39 -12 0
31 16 0
-15 -37 0
1 33 0
-4 3 0
-39 26 0
-28 -30 0
-29 -13 0
8 -21 0
14 -11 0
-33 -7 0
8 -25 0
-31 23 0
3 36 0
13 30 0
-18 26 0
10 2 0
19 -40 0
-5 -17 0
-30 -27 0
-12 -7 0
-1 -5 0
15 19 0
-22 5 0
-37 -34 0
-13 23 0
-8 1 0
-20 27 0
-34 -19 0
20 -25 0
39 -24 0
15 6 0
-2 -24 0
38 39 0
37 -3 0
31 -38 0
-33 -23 0
-35 11 0
-7 -35 0
31 9 0
-17 24 0
-34 -10 0
-21 35 0
-40 -27 0
-11 33 0
-9 -35 0
-19 -11 0
-32 38 0
12 -1 0
-9 2 0
4 -9 0
3 -28 0
-24 26 0
