c PROBLEM_040_070_08  vars=40  clausulas=70  k=2
p cnf 40 70
36 -20 0
-39 -11 0
-30 -27 0
26 4 0
11 -40 0
-24 29 0
27 -20 0
27 -14 0
11 -12 0
-36 -3 0
-37 -5 0
33 -25 0
-4 -19 0
-39 -23 0
24 -5 0
20 34 0
3 25 0
37 -34 0
29 -37 0
38 4 0
24 -10 0
-7 -16 0
-16 -17 0
38 -18 0
33 30 0
-10 -22 0
26 18 0
17 -21 0
-23 -40 0
8 -6 0
32 13 0
-38 -32 0
-40 -17 0
34 1 0
-14 17 0
-39 -36 0
3 -15 0
-31 -19 0
37 30 0
4 27 0
11 2 0
-16 35 0
15 22 0
28 5 0
9 14 0
-31 -40 0
-33 -2 0
-6 38 0
-33 4 0
6 35 0
35 -38 0
-21 -31 0
14 -13 0
-24 7 0
18 -26 0
9 14 0
-35 15 0
2 -36 0
-18 -21 0
-25 4 0
40 34 0
-30 21 0
-21 -6 0
-22 -7 0
-32 -39 0
20 -2 0
4 3 0
6 5 0
-1 -37 0
-4 -27 0
