c PROBLEM_040_070_45  vars=40  clausulas=70  k=2
p cnf 40 70
7 -26 0
-12 38 0
-5 4 0
12 -19 0
-25 -19 0
-29 33 0
33 25 0
22 34 0
-30 21 0
-18 23 0
-1 -10 0
-12 9 0
-28 -32 0
4 9 0
-8 -22 0
35 -23 0
-23 33 0
31 18 0
16 12 0
-6 -34 0
-40 -38 0
2 -15 0
-23 27 0
19 -10 0
8 30 0
37 -8 0
25 -4 0
-39 34 0
25 -30 0
26 18 0
36 11 0
27 -2 0
36 5 0
-10 33 0
-16 -40 0
4 18 0
27 -35 0
15 -1 0
31 -22 0
37 20 0
-36 -18 0
-17 -11 0
16 32 0
-14 -25 0
13 -18 0
-6 -38 0
29 10 0
31 -16 0
20 -7 0
3 12 0
-2 20 0
-29 13 0
-4 30 0
28 -12 0
-20 28 0
-26 -40 0
-9 27 0
18 -30 0
26 28 0
29 36 0
-2 -24 0
-29 -32 0
39 21 0
32 14 0
39 -35 0
-14 -39 0
-27 -32 0
-22 4 0
3 -29 0
-40 17 0
