c PROBLEM_040_070_42  vars=40  clausulas=70  k=2
p cnf 40 70
17 22 0
5 33 0
-29 -31 0
26 -11 0
-5 17 0
-3 -24 0
33 8 0
38 -40 0
-4 -21 0
-27 30 0
1 -31 0
12 9 0
32 -14 0
19 4 0
16 39 0
16 28 0
21 12 0
-27 6 0
-2 -10 0
-1 -3 0
-7 -28 0
-35 -9 0
-7 11 0
25 31 0
7 3 0
-15 14 0
20 14 0
-40 -32 0
-31 -13 0
16 -6 0
-36 -21 0
27 9 0
-6 39 0
18 -10 0
-21 -18 0
-20 32 0
38 -35 0
2 39 0
13 36 0
38 11 0
-10 -4 0
36 -39 0
15 -2 0
-19 37 0
-33 38 0
13 -40 0
38 40 0
27 2 0
6 27 0
-37 -38 0
33 -29 0
38 36 0
34 -19 0
3 20 0
-37 -3 0
23 -6 0
31 28 0
18 17 0
29 -8 0
-37 13 0
18 -30 0
-17 29 0
-1 -30 0
-24 2 0
37 -23 0
26 -13 0
-2 -14 0
28 6 0
-8 -34 0
17 -30 0
