c PROBLEM_050_070_25  vars=50  clausulas=70  k=2
p cnf 50 70
21 -17 0
-44 41 0
10 12 0
-36 16 0
21 14 0
15 21 0
-27 -11 0
-43 -9 0
-8 7 0
20 1 0
-11 37 0
-46 -40 0
-7 -48 0
-23 43 0
-22 -7 0
37 6 0
-11 -46 0
-6 -3 0
-46 -44 0
24 -8 0
2 -14 0
-28 29 0
-19 14 0
38 -42 0
-34 -27 0
41 -15 0
49 14 0
-13 20 0
-38 47 0
38 -4 0
32 -31 0
25 -46 0
-2 10 0
24 -42 0
-8 -48 0
-39 -15 0
38 -5 0
42 40 0
37 -9 0
42 -18 0
20 36 0
-26 1 0
-49 -30 0
32 -6 0
-23 13 0
21 -2 0
-5 39 0
43 2 0
13 -31 0
-48 35 0
-34 28 0
47 41 0
7 -5 0
-2 18 0
-19 49 0
-45 50 0
37 -40 0
-47 -8 0
-15 18 0
-50 -39 0
33 -2 0
-47 33 0
-24 14 0
-12 31 0
49 -3 0
45 40 0
-50 33 0
-39 48 0
-9 -41 0
18 9 0
