c PROBLEM_050_070_35  vars=50  clausulas=70  k=2
p cnf 50 70
-18 -49 0
38 28 0
9 22 0
-36 46 0
25 -18 0
30 -32 0
26 37 0
-25 -26 0
34 3 0
-15 32 0
-8 44 0
31 -15 0
23 -32 0
-3 40 0
36 -11 0
-5 24 0
-25 24 0
-31 -35 0
47 23 0
-4 35 0
5 24 0
26 -12 0
-19 29 0
-14 24 0
-6 -38 0
-6 37 0
-42 -20 0
-40 -47 0
-16 -40 0
41 -28 0
-49 11 0
-46 5 0
24 -14 0
44 32 0
36 -43 0
48 -18 0
-46 30 0
-2 -19 0
11 -37 0
-5 3 0
-31 -23 0
10 -13 0
-44 46 0
29 30 0
-11 -45 0
-3 9 0
33 40 0
-39 -50 0
-48 -17 0
-43 -41 0
2 35 0
29 -12 0
26 24 0
1 39 0
27 -38 0
4 -50 0
-26 -5 0
-19 7 0
10 26 0
-27 46 0
-27 30 0
-30 -26 0
38 -45 0
-24 8 0
17 -9 0
16 22 0
-6 -8 0
50 37 0
6 21 0
33 -18 0
