c PROBLEM_050_070_16  vars=50  clausulas=70  k=2
p cnf 50 70
-15 27 0
22 32 0
4 46 0
10 3 0
38 -24 0
-30 -36 0
47 -37 0
-39 -23 0
-25 -23 0
11 -49 0
-5 -50 0
14 -12 0
-17 19 0
27 35 0
24 -9 0
42 19 0
-3 19 0
28 45 0
-16 -44 0
-31 -49 0
-47 39 0
42 43 0
-26 12 0
21 -32 0
21 -48 0
9 12 0
18 -42 0
-19 -6 0
-37 41 0
7 1 0
-2 46 0
-20 -41 0
48 -28 0
41 -10 0
3 -46 0
50 -15 0
33 20 0
-20 11 0
8 39 0
8 11 0
-31 23 0
-13 -1 0
30 -49 0
-16 -45 0
-4 37 0
34 -25 0
-42 12 0
9 11 0
2 -28 0
3 48 0
-7 -41 0
-47 -11 0
-31 -24 0
26 -28 0
-28 -15 0
-40 4 0
33 -20 0
17 32 0
-10 29 0
18 -37 0
-46 25 0
31 -34 0
15 -30 0
-41 -49 0
8 13 0
-36 -12 0
20 25 0
27 44 0
17 -1 0
15 -6 0
