c PROBLEM_050_070_27  vars=50  clausulas=70  k=2
p cnf 50 70
-39 -46 0
50 5 0
31 -20 0
-13 -9 0
32 4 0
39 -44 0
32 8 0
10 43 0
7 -20 0
-11 17 0
43 -34 0
32 -41 0
26 -25 0
-31 -24 0
43 30 0
31 2 0
35 5 0
13 -37 0
38 -28 0
-10 -42 0
17 42 0
29 24 0
-40 -24 0
-23 36 0
49 -30 0
10 40 0
-6 36 0
23 -21 0
27 37 0
40 -37 0
31 41 0
-15 1 0
35 15 0
-29 -3 0
42 -48 0
-38 41 0
21 -6 0
46 49 0
-8 25 0
11 -4 0
-10 -16 0
27 -17 0
-33 -4 0
47 48 0
6 -15 0
-12 -25 0
-46 -18 0
-25 7 0
-50 -10 0
-20 19 0
13 5 0
-26 46 0
1 21 0
33 -34 0
-39 17 0
-29 33 0
35 -19 0
32 17 0
-43 24 0
22 -46 0
-49 22 0
-46 -49 0
-38 -39 0
-36 44 0
29 14 0
48 -49 0
1 21 0
16 -34 0
-45 -18 0
-45 -22 0
