c PROBLEM_050_070_09  vars=50  clausulas=70  k=2
p cnf 50 70
7 -39 0
18 20 0
42 -9 0
35 23 0
33 30 0
-19 1 0
-14 -25 0
30 -48 0
17 -15 0
-48 -39 0
-33 -45 0
27 29 0
-32 1 0
25 30 0
-38 10 0
-5 47 0
31 23 0
-30 -49 0
-24 36 0
-44 -13 0
-46 -16 0
-16 39 0
6 11 0
-33 16 0
18 -30 0
-40 -22 0
-42 23 0
-36 9 0
-31 43 0
-5 3 0
40 -50 0
-17 7 0
41 24 0
4 -11 0
13 6 0
3 -35 0
45 -23 0
27 34 0
-37 -26 0
15 -11 0
-24 -28 0
19 12 0
-8 40 0
-47 -50 0
-39 4 0
20 -44 0
2 21 0
-22 21 0
12 -43 0
-8 -22 0
-26 3 0
-30 11 0
-23 17 0
49 44 0
-21 22 0
10 -33 0
-35 -14 0
-29 -42 0
28 -16 0
27 -15 0
4 30 0
46 1 0
45 -26 0
-3 21 0
21 -39 0
3 2 0
7 48 0
13 21 0
22 -27 0
-18 -36 0
