c PROBLEM_050_070_26  vars=50  clausulas=70  k=2
p cnf 50 70
7 -10 0
-30 10 0
-44 -28 0
-47 -3 0
44 -32 0
-16 -26 0
-20 -6 0
-5 -50 0
-13 12 0
-33 36 0
25 1 0
30 -5 0
37 29 0
31 -2 0
-46 6 0
8 -43 0
32 -17 0
18 40 0
-49 38 0
-40 10 0
-31 -5 0
-19 21 0
-17 49 0
7 -1 0
3 -7 0
15 16 0
-10 23 0
4 47 0
-35 -32 0
-30 22 0
-39 3 0
35 46 0
20 11 0
39 50 0
-2 -21 0
-45 6 0
18 -40 0
23 41 0
1 21 0
-34 -21 0
28 -11 0
-45 48 0
4 7 0
-32 -6 0
10 9 0
-23 48 0
-18 -46 0
25 47 0
20 -11 0
-42 -34 0
-38 -5 0
-15 -42 0
-32 -21 0
50 -12 0
-42 16 0
-22 36 0
38 -12 0
-22 13 0
-13 17 0
-17 41 0
15 -35 0
4 -16 0
-32 29 0
-7 50 0
-49 22 0
12 46 0
-40 -44 0
-34 -14 0
-41 -24 0
-50 -27 0
