c PROBLEM_050_070_39  vars=50  clausulas=70  k=2
p cnf 50 70
42 -23 0
10 -42 0
21 23 0
-4 48 0
4 -28 0
10 -22 0
1 24 0
-37 -35 0
5 40 0
-39 -35 0
44 31 0
29 1 0
17 -38 0
30 11 0
-38 -47 0
-16 -36 0
-14 -23 0
-30 45 0
28 10 0
47 14 0
-4 -40 0
8 11 0
35 49 0
8 -15 0
-49 -13 0
-23 -7 0
-38 28 0
-9 -26 0
2 -47 0
-34 13 0
4 -1 0
-6 -17 0
5 -18 0
40 -17 0
8 23 0
9 -1 0
23 -38 0
3 12 0
-31 -13 0
-48 15 0
38 -37 0
3 -7 0
-30 -43 0
6 -16 0
3 -45 0
-26 25 0
-43 -3 0
-17 1 0
19 -33 0
42 -26 0
-6 -14 0
39 -5 0
-13 -21 0
48 -16 0
-37 -48 0
25 41 0
-14 -6 0
38 42 0
19 -49 0
20 -40 0
-47 27 0
-21 28 0
-14 -30 0
-40 34 0
46 -32 0
-33 -10 0
7 46 0
-50 38 0
-19 -7 0
-31 -1 0
