c PROBLEM_050_070_03  vars=50  clausulas=70  k=2
p cnf 50 70
46 15 0
48 15 0
-16 17 0
-30 46 0
-30 -12 0
48 -16 0
41 4 0
-5 40 0
-23 -46 0
-26 33 0
49 11 0
-13 -23 0
19 44 0
8 39 0
-15 -19 0
41 23 0
10 -37 0
13 50 0
-28 -20 0
22 -4 0
-44 33 0
1 -35 0
36 9 0
-30 -37 0
7 31 0
42 37 0
37 -49 0
2 17 0
-25 -34 0
6 -22 0
-39 1 0
-30 -43 0
-14 -10 0
-32 -28 0
22 10 0
-16 25 0
-30 15 0
21 -6 0
-20 -27 0
10 27 0
-25 -37 0
-23 13 0
-21 8 0
-3 -18 0
-17 30 0
26 -27 0
-47 -39 0
-46 -17 0
43 29 0
37 -4 0
28 -12 0
24 -17 0
29 -22 0
-49 33 0
-35 -26 0
-19 21 0
3 -9 0
-32 -11 0
-33 -32 0
29 21 0
-40 -9 0
-5 -1 0
-50 22 0
11 -37 0
33 48 0
28 -39 0
-45 -40 0
-38 -41 0
9 7 0
-38 4 0
