c PROBLEM_050_070_22  vars=50  clausulas=70  k=2
p cnf 50 70
-28 31 0
-35 44 0
-43 48 0
-49 12 0
32 -43 0
3 12 0
-32 11 0
-38 -14 0
3 -21 0
-42 -1 0
7 11 0
-30 -4 0
-40 33 0
-9 32 0
-37 -28 0
42 24 0
-25 37 0
-41 -6 0
-10 -20 0
43 -49 0
13 -5 0
32 -35 0
-11 9 0
31 20 0
-7 -29 0
2 -18 0
15 50 0
-18 -21 0
4 -27 0
26 27 0
4 -46 0
5 31 0
-12 -48 0
12 -13 0
38 -10 0
49 -45 0
-34 37 0
1 -10 0
-22 16 0
40 21 0
8 -12 0
47 6 0
-27 9 0
2 -45 0
-8 25 0
-30 3 0
-16 2 0
11 19 0
49 -14 0
-5 35 0
46 8 0
46 31 0
18 -38 0
-28 -24 0
-14 -42 0
9 -14 0
1 35 0
-36 -41 0
-15 -17 0
35 22 0
-42 23 0
-6 35 0
-5 39 0
-47 -36 0
13 -34 0
-29 46 0
-45 18 0
14 38 0
-28 -35 0
17 -43 0
