c PROBLEM_050_070_47  vars=50  clausulas=70  k=2
p cnf 50 70
24 36 0
-3 -17 0
-27 -38 0
-2 -16 0
8 3 0
-10 -24 0
-14 48 0
-19 -46 0
-8 -45 0
7 -1 0
-30 -21 0
-23 -39 0
33 26 0
-20 17 0
38 37 0
22 -7 0
-46 -10 0
-43 -3 0
-6 -49 0
19 -30 0
-30 38 0
19 34 0
49 16 0
-21 1 0
48 -10 0
47 -33 0
6 -26 0
23 50 0
38 -15 0
48 -6 0
34 -40 0
29 -4 0
-5 -31 0
44 -23 0
41 31 0
-25 -29 0
-42 39 0
36 17 0
-2 29 0
-9 47 0
-42 41 0
28 -17 0
-1 -18 0
-6 -49 0
10 -47 0
28 -6 0
-43 -22 0
-39 -30 0
15 21 0
-20 14 0
27 -38 0
-40 28 0
-48 -31 0
-6 -12 0
-38 11 0
-12 22 0
25 -4 0
-18 36 0
32 24 0
47 43 0
-24 -33 0
-16 -11 0
-16 -9 0
-22 37 0
-42 50 0
14 -29 0
-20 -35 0
-36 3 0
-3 35 0
13 3 0
