c PROBLEM_050_070_46  vars=50  clausulas=70  k=2
p cnf 50 70
49 -2 0
-1 -19 0
-29 6 0
-15 10 0
-49 5 0
32 -34 0
-49 8 0
8 -19 0
37 -25 0
-39 -48 0
-4 -16 0
43 -31 0
-5 32 0
-11 -29 0
-19 -27 0
-17 -50 0
9 21 0
42 20 0
-14 28 0
14 36 0
10 -27 0
-47 7 0
22 -32 0
39 48 0
24 -33 0
-41 50 0
-44 -2 0
-49 1 0
34 -46 0
2 50 0
-31 42 0
27 4 0
-8 -17 0
-29 49 0
38 -42 0
-36 -44 0
35 -13 0
-17 40 0
-21 27 0
37 36 0
45 20 0
-9 -15 0
-8 1 0
-50 -34 0
-37 -24 0
12 -17 0
38 21 0
27 -48 0
-19 28 0
-47 7 0
25 -24 0
-5 39 0
-18 26 0
-3 -36 0
-27 22 0
21 -41 0
-23 -21 0
-39 -35 0
16 -48 0
-45 30 0
37 -20 0
-38 -30 0
-38 -23 0
-49 33 0
8 -14 0
28 12 0
3 -10 0
-5 40 0
21 -2 0
-20 -11 0
