c PROBLEM_050_070_31  vars=50  clausulas=70  k=2
p cnf 50 70
34 39 0
-44 -49 0
6 -37 0
-49 -30 0
50 -46 0
-13 25 0
37 -28 0
1 35 0
5 -12 0
-1 -44 0
-28 43 0
28 -2 0
-1 26 0
-46 14 0
2 -13 0
36 49 0
39 -12 0
6 50 0
37 -28 0
13 41 0
-18 -3 0
-26 -4 0
-5 -38 0
45 25 0
35 25 0
-13 -26 0
-11 -8 0
-7 47 0
22 35 0
-46 -21 0
28 22 0
29 -44 0
-2 50 0
4 -8 0
15 27 0
-19 15 0
36 20 0
-19 -11 0
-38 28 0
-11 2 0
35 46 0
-17 -28 0
26 43 0
38 29 0
17 -12 0
-47 -3 0
49 -36 0
-15 -32 0
-34 -24 0
1 -34 0
-25 31 0
23 -48 0
-35 -34 0
46 -27 0
-12 36 0
33 1 0
-46 -43 0
-9 -16 0
-14 -34 0
-9 12 0
-46 17 0
-40 35 0
26 -40 0
14 -10 0
-18 -43 0
-10 43 0
50 -34 0
13 -17 0
-30 42 0
-33 -23 0
