c PROBLEM_050_070_36  vars=50  clausulas=70  k=2
p cnf 50 70
-45 -30 0
33 -25 0
-36 -12 0
-9 -15 0
4 -48 0
41 20 0
-3 -18 0
-3 46 0
3 -6 0
42 -44 0
37 -14 0
35 -22 0
-5 -20 0
-21 34 0
-3 -21 0
28 -16 0
36 -4 0
-45 13 0
12 42 0
-11 1 0
40 12 0
21 26 0
26 -29 0
-22 47 0
31 34 0
49 -32 0
10 -5 0
19 -27 0
9 -47 0
-29 42 0
-25 23 0
35 -38 0
-41 46 0
10 -31 0
-2 -12 0
-9 1 0
39 -48 0
-24 11 0
-38 -17 0
-43 -2 0
-23 -15 0
-31 20 0
-47 40 0
-24 -50 0
4 -2 0
46 7 0
-20 -18 0
-41 46 0
-42 -40 0
44 -37 0
27 16 0
-20 -49 0
14 24 0
-47 39 0
22 3 0
-7 -1 0
-10 -8 0
38 -22 0
29 43 0
31 24 0
-48 -44 0
-47 -37 0
7 14 0
-34 9 0
-18 -35 0
26 -50 0
-43 -12 0
23 -20 0
-13 41 0
-49 6 0
