c PROBLEM_050_070_38  vars=50  clausulas=70  k=2
p cnf 50 70
-22 19 0
39 3 0
-40 -27 0
21 25 0
-2 -3 0
-10 49 0
-48 23 0
-28 -24 0
46 13 0
-21 34 0
-40 -28 0
-16 42 0
-46 14 0
6 -17 0
30 18 0
2 4 0
-9 -24 0
43 -11 0
49 -5 0
-6 -50 0
34 28 0
5 -42 0
-47 -33 0
-44 14 0
-44 41 0
28 -6 0
31 -27 0
34 -30 0
28 35 0
-22 -19 0
29 21 0
-38 37 0
2 -36 0
-16 47 0
-20 -35 0
-9 -34 0
45 14 0
49 -29 0
-4 13 0
-8 47 0
-6 -32 0
-44 20 0
9 -37 0
-17 -32 0
-40 16 0
3 23 0
-31 -40 0
14 30 0
-46 -40 0
-27 26 0
-21 -16 0
-44 22 0
46 -24 0
13 -7 0
-26 -50 0
2 18 0
-31 -2 0
41 -10 0
-13 35 0
-34 -14 0
36 41 0
5 -1 0
46 44 0
-15 -3 0
4 -28 0
25 18 0
12 -7 0
33 -25 0
45 4 0
33 37 0
