c PROBLEM_050_070_42  vars=50  clausulas=70  k=2
p cnf 50 70
-49 47 0
-15 32 0
32 34 0
37 -38 0
33 -7 0
-2 21 0
-36 10 0
27 -49 0
11 -33 0
32 -18 0
41 -30 0
24 -7 0
-48 -5 0
7 16 0
-3 43 0
31 -16 0
33 50 0
-47 34 0
-38 32 0
48 -30 0
45 -22 0
21 14 0
-12 25 0
1 25 0
38 31 0
26 9 0
-25 23 0
-9 -33 0
-5 -24 0
-5 44 0
-13 -29 0
-18 -6 0
7 -46 0
-50 -36 0
31 -40 0
-4 -20 0
2 10 0
-15 -48 0
-38 48 0
28 29 0
-47 27 0
4 50 0
11 -26 0
35 -34 0
24 47 0
20 18 0
-39 -28 0
16 -14 0
-9 24 0
-12 26 0
3 -49 0
-17 35 0
-20 4 0
-46 -11 0
-40 22 0
48 -19 0
33 -42 0
35 45 0
-15 3 0
34 -26 0
10 34 0
36 -43 0
42 7 0
8 50 0
23 48 0
-40 -22 0
-19 -2 0
3 -17 0
8 -15 0
-47 20 0
