c PROBLEM_050_090_43  vars=50  clausulas=90  k=2
p cnf 50 90
-13 -23 0
43 39 0
34 -5 0
27 -34 0
-11 21 0
-23 35 0
27 -14 0
-14 -4 0
39 4 0
3 -25 0
-22 20 0
41 -25 0
49 2 0
-3 -49 0
-32 38 0
-24 -33 0
2 -40 0
37 -39 0
-20 4 0
27 24 0
-18 -35 0
-50 40 0
-7 -44 0
-27 -39 0
-24 -12 0
7 5 0
34 -39 0
42 -43 0
-34 6 0
14 34 0
-36 9 0
-46 48 0
2 39 0
-11 -20 0
41 10 0
39 -20 0
49 -19 0
-29 46 0
-35 28 0
36 -14 0
-11 1 0
-20 43 0
45 -1 0
-45 19 0
6 -30 0
-42 21 0
14 38 0
-5 -16 0
21 -42 0
-44 -34 0
-49 -46 0
19 27 0
35 -22 0
-39 -27 0
2 -4 0
47 50 0
-16 5 0
43 -31 0
-26 36 0
-27 -28 0
-32 38 0
1 24 0
-8 -35 0
-26 -44 0
21 -29 0
2 -41 0
49 37 0
16 -11 0
-8 -12 0
14 18 0
-23 50 0
31 23 0
40 11 0
46 -19 0
-41 -27 0
-22 10 0
-33 16 0
13 -40 0
-47 -5 0
20 6 0
15 -48 0
23 42 0
17 -26 0
7 27 0
-34 23 0
-29 -38 0
9 33 0
-26 9 0
48 47 0
30 -25 0
