c PROBLEM_050_090_03  vars=50  clausulas=90  k=2
p cnf 50 90
-40 34 0
43 3 0
17 5 0
-39 15 0
-50 4 0
28 39 0
49 32 0
8 -40 0
-28 -17 0
-36 40 0
11 14 0
-37 6 0
-22 41 0
6 -45 0
20 -47 0
-17 5 0
-46 -45 0
-44 -4 0
44 -26 0
-37 23 0
-26 -35 0
14 -22 0
34 -13 0
6 20 0
-39 -2 0
11 -6 0
48 -14 0
28 37 0
50 -18 0
-47 -16 0
-36 -7 0
-14 48 0
-4 29 0
-35 -32 0
22 45 0
20 -25 0
-42 5 0
-10 -39 0
22 39 0
44 18 0
37 -27 0
34 -2 0
-9 11 0
21 11 0
18 1 0
-1 -21 0
44 -49 0
7 -16 0
28 -45 0
50 -46 0
-6 19 0
-5 22 0
3 9 0
8 -40 0
33 -18 0
-36 35 0
33 4 0
27 34 0
-22 29 0
-4 -2 0
45 24 0
-15 32 0
-9 -3 0
12 -28 0
47 37 0
-5 38 0
46 -30 0
38 -20 0
9 10 0
-20 -34 0
33 21 0
-34 -25 0
-1 38 0
-2 37 0
-37 34 0
-8 31 0
25 -42 0
-38 -33 0
-5 50 0
-39 18 0
49 -19 0
6 30 0
-27 2 0
-45 11 0
11 -33 0
20 -50 0
-13 47 0
31 24 0
-28 36 0
19 -4 0
