c PROBLEM_050_090_46  vars=50  clausulas=90  k=2
p cnf 50 90
-36 -18 0
30 32 0
-33 -22 0
5 -43 0
-23 15 0
-19 -38 0
-13 -48 0
-10 -48 0
29 17 0
6 -16 0
35 -12 0
-46 -1 0
24 -15 0
-36 -14 0
1 -23 0
-45 -42 0
47 31 0
-39 17 0
-2 -33 0
-4 -14 0
-10 -27 0
-11 -7 0
-46 24 0
17 11 0
-39 45 0
15 12 0
-20 42 0
30 20 0
50 -18 0
-10 -5 0
-44 10 0
-37 -8 0
-34 40 0
25 26 0
-49 -7 0
21 9 0
-5 -49 0
-36 5 0
-27 -46 0
41 22 0
-37 12 0
-28 29 0
-16 27 0
-44 27 0
-9 10 0
-31 34 0
-21 -14 0
-31 15 0
-24 19 0
-34 15 0
3 18 0
-28 -32 0
-19 11 0
-14 47 0
-44 18 0
16 -8 0
-17 44 0
34 -41 0
-27 -33 0
-9 -22 0
-46 27 0
40 49 0
11 13 0
18 22 0
4 -39 0
20 2 0
-31 -49 0
23 17 0
-10 18 0
-25 39 0
19 -32 0
17 19 0
-29 -7 0
27 -26 0
26 -6 0
-27 49 0
43 34 0
38 -23 0
-3 46 0
1 -19 0
44 -8 0
30 -19 0
-13 -38 0
31 -40 0
-47 27 0
41 -33 0
-35 -14 0
5 -26 0
1 44 0
39 -42 0
