c PROBLEM_050_090_28  vars=50  clausulas=90  k=2
p cnf 50 90
-5 11 0
24 -39 0
31 10 0
-45 41 0
32 -31 0
-30 19 0
44 34 0
49 -27 0
21 -28 0
33 9 0
28 -29 0
-26 -12 0
-37 50 0
-3 -49 0
-27 17 0
14 -1 0
20 -9 0
5 -34 0
-45 -9 0
10 47 0
-15 7 0
19 -40 0
-7 -18 0
-22 -17 0
-35 -48 0
11 -31 0
-24 -1 0
-4 13 0
-25 33 0
-20 -50 0
41 45 0
-12 26 0
-39 36 0
-17 -29 0
13 14 0
26 3 0
-7 -23 0
-17 40 0
10 -33 0
2 19 0
-13 -26 0
-9 -20 0
13 30 0
42 -50 0
8 -3 0
29 15 0
32 -11 0
-47 29 0
49 -23 0
-6 -26 0
35 -10 0
1 31 0
37 -35 0
-8 18 0
4 16 0
47 44 0
-43 -40 0
-23 5 0
-37 10 0
19 28 0
29 -26 0
27 -20 0
-16 49 0
-44 -43 0
14 -19 0
50 -46 0
-4 -46 0
-41 45 0
4 -16 0
32 -16 0
32 6 0
48 -12 0
1 12 0
22 42 0
-40 -26 0
-15 -18 0
14 39 0
-34 6 0
-41 -35 0
-22 -17 0
-18 45 0
-46 -21 0
-16 -38 0
-21 48 0
29 12 0
-40 17 0
-3 36 0
-36 -24 0
30 -36 0
22 -33 0
