c PROBLEM_050_090_47  vars=50  clausulas=90  k=2
p cnf 50 90
-19 5 0
-19 28 0
-41 39 0
8 -12 0
-50 43 0
38 -35 0
17 42 0
25 21 0
-22 46 0
3 -48 0
-30 48 0
-15 -39 0
-25 10 0
40 28 0
8 17 0
47 -14 0
31 -6 0
-38 -19 0
-37 26 0
-21 40 0
35 -28 0
29 -47 0
-50 48 0
-3 12 0
11 34 0
36 -14 0
-29 -38 0
-26 9 0
27 11 0
-15 -48 0
2 27 0
47 -40 0
-13 -10 0
36 9 0
-40 -31 0
-45 -16 0
47 1 0
-20 45 0
6 47 0
-1 30 0
-35 49 0
-17 -25 0
-36 44 0
-32 49 0
41 4 0
45 -5 0
-33 36 0
34 -27 0
28 -33 0
3 -9 0
-24 -9 0
11 33 0
33 30 0
43 22 0
-7 -16 0
-11 24 0
22 -41 0
-16 5 0
-3 30 0
-49 -24 0
-36 25 0
-29 35 0
-50 30 0
-42 30 0
43 17 0
41 -3 0
15 -20 0
-41 2 0
15 -23 0
4 12 0
-6 -27 0
37 -3 0
32 20 0
-41 -10 0
5 12 0
26 -18 0
3 -43 0
-20 -32 0
9 -44 0
-39 13 0
-35 37 0
-15 -42 0
34 6 0
42 -38 0
7 -14 0
2 -38 0
-42 16 0
27 -16 0
44 29 0
-26 -21 0
