c PROBLEM_050_090_25  vars=50  clausulas=90  k=2
p cnf 50 90
-32 4 0
23 40 0
39 23 0
-40 -42 0
-4 50 0
-33 6 0
7 49 0
-18 -38 0
-15 -30 0
48 7 0
37 -2 0
-46 9 0
27 -10 0
14 -31 0
-35 -5 0
-17 -31 0
-28 24 0
-27 -11 0
-32 43 0
-27 19 0
-13 -33 0
-1 -33 0
-37 -34 0
43 11 0
-39 -5 0
-27 24 0
25 15 0
1 -9 0
16 -43 0
11 40 0
-11 31 0
2 -11 0
16 -28 0
-12 5 0
41 29 0
44 -38 0
-50 21 0
-30 37 0
45 -18 0
12 -6 0
-29 -8 0
13 47 0
44 39 0
24 21 0
35 36 0
-1 -10 0
22 -30 0
-38 -14 0
34 1 0
38 7 0
2 26 0
10 28 0
-19 -26 0
-29 -48 0
-27 -50 0
40 23 0
27 32 0
47 2 0
-6 5 0
-32 3 0
-8 -22 0
-2 -35 0
42 34 0
43 15 0
27 41 0
31 -46 0
-46 10 0
-47 -27 0
29 -16 0
44 -49 0
13 -19 0
17 -6 0
-13 -39 0
2 26 0
-47 -49 0
-27 -11 0
-5 -39 0
20 -18 0
-3 43 0
-13 -7 0
-15 16 0
-2 -32 0
48 17 0
37 25 0
-36 -21 0
30 46 0
-11 37 0
32 -9 0
-21 -18 0
1 -17 0
