c PROBLEM_050_090_06  vars=50  clausulas=90  k=2
p cnf 50 90
-26 -29 0
44 -36 0
-19 14 0
28 -8 0
16 19 0
38 -21 0
-17 -6 0
-1 -22 0
18 14 0
16 32 0
-42 30 0
36 6 0
48 -25 0
29 21 0
20 -23 0
-14 27 0
45 38 0
18 -22 0
-11 -25 0
-12 -18 0
-7 15 0
-34 -9 0
5 47 0
-35 -1 0
36 27 0
-6 7 0
21 -47 0
-23 -15 0
-39 48 0
-47 -25 0
-6 34 0
-50 -46 0
30 31 0
-8 31 0
45 -40 0
-20 -45 0
-33 21 0
43 29 0
-24 -6 0
-9 -43 0
-31 4 0
-20 -33 0
42 32 0
-19 -35 0
-22 -5 0
-43 5 0
28 50 0
-38 -37 0
44 -25 0
-10 21 0
30 14 0
-2 47 0
-5 -44 0
44 30 0
-22 27 0
-36 -24 0
-17 -38 0
-34 36 0
20 -43 0
34 -16 0
15 -34 0
26 -41 0
-27 -37 0
36 18 0
10 29 0
18 33 0
-13 43 0
49 24 0
-3 6 0
-23 29 0
34 -50 0
-40 -42 0
-37 28 0
-12 5 0
-1 10 0
29 25 0
22 14 0
-41 19 0
-13 4 0
19 17 0
-37 44 0
-16 26 0
-42 43 0
6 -40 0
18 33 0
-34 -43 0
29 -44 0
-32 -49 0
17 -41 0
-24 27 0
