c PROBLEM_050_090_07  vars=50  clausulas=90  k=2
p cnf 50 90
29 37 0
-49 -24 0
31 14 0
2 -6 0
48 12 0
-8 26 0
15 4 0
-47 32 0
-30 21 0
-9 -43 0
-8 36 0
-26 23 0
20 -8 0
-10 50 0
31 -22 0
-4 19 0
-25 -36 0
-44 12 0
47 -19 0
-41 19 0
-16 25 0
-7 3 0
36 -7 0
-7 -20 0
27 -21 0
3 1 0
40 47 0
-5 24 0
-50 30 0
10 29 0
-16 -45 0
-25 14 0
-35 14 0
-35 18 0
43 -29 0
-41 31 0
-46 -34 0
17 8 0
-2 50 0
29 -15 0
-38 7 0
49 -1 0
34 33 0
-46 -30 0
13 39 0
9 -50 0
15 -25 0
-24 15 0
37 32 0
34 -30 0
-29 -4 0
-4 -46 0
12 31 0
34 27 0
40 11 0
45 -28 0
-14 -3 0
-41 48 0
43 42 0
-27 -28 0
-25 -47 0
-50 -35 0
-33 -14 0
15 -39 0
8 42 0
-20 39 0
12 15 0
-4 -45 0
44 5 0
-15 -50 0
-16 10 0
11 8 0
21 41 0
-39 13 0
21 30 0
-10 -22 0
-15 45 0
33 -7 0
-6 4 0
13 -1 0
28 24 0
-47 -46 0
40 -31 0
-14 -33 0
30 -27 0
-28 -21 0
-38 21 0
-24 -13 0
-27 -6 0
10 -32 0
