c PROBLEM_050_090_21  vars=50  clausulas=90  k=2
p cnf 50 90
15 10 0
1 -11 0
20 34 0
41 36 0
-31 -30 0
-44 -46 0
18 6 0
22 38 0
-37 -48 0
8 23 0
-48 -41 0
17 3 0
-19 17 0
19 -45 0
-18 10 0
-9 -23 0
-36 28 0
-29 14 0
-17 37 0
-1 16 0
44 16 0
-14 19 0
-41 -11 0
-39 4 0
1 -6 0
-36 -25 0
25 -48 0
-50 48 0
32 19 0
-27 31 0
-20 31 0
36 17 0
-11 45 0
-41 -22 0
-26 29 0
23 -19 0
13 9 0
-46 -20 0
-18 31 0
39 50 0
-19 36 0
27 -11 0
6 29 0
2 -11 0
-50 39 0
-9 37 0
-22 8 0
-26 -49 0
33 -26 0
-16 -12 0
-5 -27 0
-25 -21 0
2 34 0
35 33 0
-35 44 0
30 36 0
30 -38 0
-40 35 0
-14 -25 0
47 24 0
-19 20 0
-46 -30 0
-48 -44 0
-25 14 0
-3 -7 0
43 39 0
6 50 0
-49 -40 0
-30 -8 0
46 -19 0
-23 -48 0
11 49 0
-42 -44 0
-45 -2 0
11 21 0
-18 -14 0
-30 20 0
-37 -41 0
12 32 0
13 1 0
7 -42 0
-43 45 0
38 41 0
6 2 0
31 28 0
-37 -3 0
-14 12 0
31 4 0
-9 26 0
-24 -39 0
