c PROBLEM_050_090_17  vars=50  clausulas=90  k=2
p cnf 50 90
46 -19 0
46 34 0
-18 6 0
-43 41 0
-33 27 0
-39 16 0
10 -3 0
8 46 0
-34 -28 0
17 50 0
-21 38 0
-17 -25 0
-35 33 0
-49 -33 0
18 -33 0
45 -22 0
36 10 0
39 7 0
-42 28 0
44 -42 0
-20 -50 0
9 -23 0
-12 35 0
41 11 0
-16 13 0
-17 -46 0
-44 25 0
21 41 0
48 28 0
-5 -11 0
6 37 0
-44 37 0
-50 -14 0
-27 -40 0
26 42 0
-16 -41 0
22 2 0
41 12 0
-31 -38 0
-17 -28 0
14 -40 0
-27 -10 0
10 45 0
-4 -47 0
16 19 0
38 -24 0
34 12 0
-29 -8 0
-47 -14 0
-27 -5 0
2 -21 0
8 22 0
13 -18 0
-9 -8 0
-24 43 0
-6 19 0
-16 -32 0
-16 21 0
-27 45 0
-47 -29 0
-36 16 0
-25 31 0
-32 44 0
-3 -24 0
23 -15 0
-30 -6 0
23 -20 0
37 17 0
-15 17 0
-36 46 0
20 16 0
1 38 0
17 27 0
2 -4 0
-7 3 0
-22 18 0
-46 -36 0
-8 -40 0
25 26 0
48 20 0
-10 46 0
-41 43 0
44 50 0
-5 14 0
-3 -31 0
-5 18 0
26 -9 0
-40 -12 0
-49 39 0
-36 20 0
