c PROBLEM_050_090_20  vars=50  clausulas=90  k=2
p cnf 50 90
-34 40 0
44 36 0
42 34 0
50 46 0
-39 21 0
-48 -32 0
20 25 0
-38 -40 0
-14 -39 0
-23 45 0
-12 39 0
6 -12 0
-49 -37 0
36 2 0
-8 -16 0
-41 -13 0
35 -41 0
-10 46 0
-24 -41 0
-9 6 0
-20 -17 0
-24 1 0
-12 36 0
34 29 0
-25 3 0
34 7 0
35 -1 0
28 12 0
46 17 0
-23 49 0
16 3 0
-38 -11 0
15 46 0
-44 4 0
-41 -7 0
1 4 0
-49 28 0
-23 -50 0
-50 -14 0
-44 -13 0
49 1 0
48 1 0
-3 32 0
7 46 0
5 49 0
-26 -28 0
-43 42 0
29 -31 0
-5 34 0
41 -35 0
-7 -23 0
16 46 0
19 34 0
38 31 0
18 14 0
-24 44 0
25 2 0
31 44 0
-45 -35 0
-2 5 0
17 38 0
-5 -10 0
31 29 0
-8 33 0
35 23 0
5 -44 0
-2 -31 0
-1 13 0
33 27 0
-18 27 0
-25 -7 0
39 4 0
14 -47 0
41 -25 0
-30 3 0
41 15 0
3 -45 0
-2 22 0
-31 13 0
37 -39 0
27 45 0
23 10 0
11 36 0
27 -10 0
48 -30 0
-48 -32 0
17 46 0
-15 1 0
-5 27 0
-49 -21 0
