c PROBLEM_050_090_49  vars=50  clausulas=90  k=2
p cnf 50 90
21 -13 0
-10 2 0
23 -34 0
-35 40 0
-41 18 0
-6 -26 0
4 -37 0
44 38 0
23 -4 0
11 23 0
-50 -14 0
-12 -36 0
28 -16 0
45 39 0
17 39 0
-43 -28 0
-37 -10 0
-6 32 0
-46 44 0
-36 -38 0
-3 -9 0
45 30 0
-43 28 0
-48 6 0
-40 -11 0
20 32 0
2 -16 0
-37 35 0
27 12 0
5 -49 0
-49 48 0
-16 2 0
29 15 0
13 45 0
-50 -29 0
-23 -9 0
-15 22 0
-15 -28 0
6 -42 0
24 47 0
1 7 0
25 5 0
26 24 0
-45 -16 0
38 13 0
1 -25 0
40 -30 0
-49 28 0
-37 30 0
-17 32 0
-37 -49 0
-23 42 0
48 33 0
-20 -19 0
9 38 0
12 7 0
-43 -20 0
-47 -5 0
-8 -19 0
-29 -8 0
-2 24 0
43 -29 0
8 -27 0
28 34 0
-44 -14 0
-32 -4 0
16 -47 0
-46 -29 0
7 -4 0
2 42 0
34 -6 0
-43 41 0
31 -3 0
-4 26 0
39 -43 0
-12 -36 0
30 39 0
-44 -12 0
-11 18 0
-31 36 0
6 47 0
-20 30 0
50 2 0
7 -2 0
20 44 0
-19 42 0
-22 -39 0
-11 2 0
-19 9 0
-3 1 0
