c PROBLEM_050_090_48  vars=50  clausulas=90  k=2
p cnf 50 90
-10 -4 0
-28 30 0
-7 48 0
-3 46 0
-47 -25 0
46 40 0
-49 4 0
22 -32 0
21 23 0
-29 -47 0
-3 -8 0
-3 -40 0
-23 16 0
8 38 0
32 37 0
30 -32 0
8 -34 0
-29 1 0
50 -49 0
-1 39 0
30 -33 0
-5 3 0
31 -42 0
-13 3 0
20 42 0
14 -24 0
-5 8 0
12 -6 0
-27 11 0
32 28 0
16 14 0
5 -41 0
-28 8 0
-43 -15 0
30 21 0
23 40 0
11 -32 0
-45 3 0
41 -20 0
-48 -23 0
-6 -28 0
-2 18 0
36 27 0
22 6 0
45 31 0
2 41 0
28 2 0
37 -18 0
35 -43 0
-27 13 0
-12 45 0
37 -33 0
33 2 0
-13 -38 0
4 -21 0
35 50 0
-25 -43 0
-15 -50 0
12 -4 0
36 -4 0
-15 -6 0
-23 32 0
-26 40 0
-15 35 0
50 -5 0
-24 -3 0
-3 11 0
31 -47 0
15 -7 0
-8 35 0
34 -33 0
34 43 0
-17 32 0
23 -28 0
-49 -19 0
47 25 0
47 -11 0
2 -18 0
7 -29 0
22 27 0
44 35 0
-50 -46 0
18 26 0
-39 28 0
-11 1 0
-46 -9 0
-24 17 0
17 -32 0
49 42 0
40 33 0
