c PROBLEM_050_090_37  vars=50  clausulas=90  k=2
p cnf 50 90
41 -28 0
43 23 0
-22 6 0
-37 35 0
-46 20 0
-28 26 0
-4 -27 0
29 16 0
-14 10 0
-26 -38 0
-27 33 0
25 -10 0
37 -16 0
-34 12 0
-39 41 0
-19 -26 0
-39 13 0
37 4 0
25 20 0
-12 31 0
43 16 0
11 -13 0
30 -44 0
2 8 0
-31 -30 0
41 -15 0
-16 7 0
-5 20 0
-13 7 0
47 45 0
47 -50 0
44 40 0
-44 48 0
32 48 0
36 17 0
-9 31 0
5 14 0
34 -3 0
18 50 0
-29 49 0
9 -19 0
25 42 0
-31 41 0
48 -27 0
-19 18 0
-12 29 0
-23 -8 0
-1 -33 0
40 -10 0
-37 -44 0
-33 -14 0
4 48 0
16 -31 0
-19 -24 0
19 -31 0
10 42 0
32 -36 0
-9 -24 0
-33 8 0
32 35 0
-28 -48 0
40 -17 0
-2 4 0
-1 3 0
25 23 0
32 22 0
39 11 0
27 -30 0
13 29 0
37 45 0
-14 7 0
10 -11 0
-37 30 0
46 -28 0
5 48 0
-6 50 0
-47 -41 0
31 -15 0
-42 -47 0
-28 -32 0
21 50 0
12 29 0
27 41 0
-38 -8 0
-18 26 0
-7 49 0
-43 -37 0
45 21 0
34 -31 0
-38 -46 0
