c PROBLEM_050_090_27  vars=50  clausulas=90  k=2
p cnf 50 90
-16 -29 0
-50 -2 0
34 23 0
-15 -16 0
33 10 0
50 48 0
-42 49 0
36 9 0
-10 -29 0
39 -2 0
34 11 0
-17 19 0
30 -45 0
2 -18 0
-50 31 0
18 23 0
-27 35 0
-22 34 0
-20 27 0
-40 -14 0
33 44 0
45 -3 0
-39 26 0
-3 -1 0
-31 8 0
-20 17 0
21 46 0
-2 -35 0
-13 36 0
-11 -13 0
-1 -48 0
-38 23 0
-16 27 0
-40 -42 0
-39 -23 0
35 43 0
-44 -19 0
2 -13 0
-46 43 0
27 48 0
21 15 0
-40 17 0
1 -26 0
35 -33 0
-3 -39 0
16 -4 0
39 45 0
28 -12 0
27 25 0
-15 10 0
15 13 0
-30 33 0
-28 -42 0
18 -24 0
-5 7 0
-3 -23 0
15 47 0
-27 49 0
-50 -31 0
-46 6 0
-41 -36 0
26 14 0
-6 41 0
38 43 0
-27 -10 0
-40 48 0
-34 30 0
27 45 0
-18 -6 0
-5 43 0
-42 18 0
12 -34 0
-11 22 0
31 38 0
42 7 0
-31 21 0
-16 -43 0
-16 19 0
-37 -5 0
4 45 0
33 -10 0
-14 -33 0
-31 -48 0
22 9 0
30 -46 0
-6 32 0
9 -4 0
30 -44 0
46 10 0
-21 -4 0
