c PROBLEM_050_090_12  vars=50  clausulas=90  k=2
p cnf 50 90
47 -12 0
3 20 0
-32 3 0
-31 7 0
-47 -33 0
-30 24 0
1 -21 0
50 -38 0
7 -10 0
9 3 0
-27 4 0
22 -37 0
-29 39 0
12 38 0
36 -9 0
24 20 0
-33 34 0
35 -17 0
37 -40 0
19 10 0
-10 -23 0
22 41 0
37 -20 0
1 -35 0
18 -38 0
15 12 0
-30 -4 0
-8 12 0
-41 -7 0
4 44 0
14 44 0
42 -1 0
36 5 0
-39 -29 0
-27 -29 0
-38 -17 0
-25 6 0
-6 19 0
13 -15 0
-9 36 0
34 -35 0
-34 -26 0
-43 32 0
1 -22 0
26 33 0
11 5 0
-26 -1 0
-28 -49 0
-19 -28 0
-19 -49 0
-4 2 0
-2 10 0
-37 34 0
18 47 0
-37 -16 0
48 46 0
28 17 0
-49 36 0
-23 -38 0
-3 35 0
-41 42 0
-42 46 0
-50 25 0
13 32 0
16 35 0
-28 26 0
3 14 0
24 -13 0
42 -36 0
30 -22 0
-34 -13 0
-39 19 0
-27 40 0
45 -50 0
-41 -8 0
7 35 0
11 23 0
-31 21 0
-23 4 0
-1 11 0
-15 21 0
40 -22 0
9 -11 0
-37 -25 0
22 33 0
-39 18 0
-36 25 0
7 30 0
12 -27 0
-46 25 0
