c PROBLEM_050_090_41  vars=50  clausulas=90  k=2
p cnf 50 90
27 26 0
-17 32 0
29 9 0
-37 -6 0
41 33 0
-35 -48 0
-2 -37 0
-10 25 0
-29 42 0
25 -14 0
-28 17 0
-22 -24 0
15 37 0
-9 2 0
-25 -27 0
38 26 0
-2 9 0
7 -18 0
-9 16 0
-27 -13 0
21 11 0
5 6 0
-50 44 0
40 5 0
-3 -43 0
-33 -46 0
-32 15 0
14 28 0
-42 5 0
-32 47 0
-48 33 0
-9 31 0
27 30 0
-33 -1 0
48 -19 0
42 -21 0
7 17 0
-30 46 0
-8 -6 0
44 -41 0
23 4 0
-46 13 0
42 27 0
-14 29 0
-20 -39 0
-10 3 0
35 31 0
-30 45 0
45 -12 0
17 -6 0
-40 -33 0
-14 -42 0
24 -30 0
22 32 0
-34 -43 0
20 33 0
-22 -20 0
5 3 0
-14 41 0
40 16 0
-10 28 0
-33 23 0
1 7 0
39 -30 0
-29 21 0
8 -4 0
-3 22 0
-36 -1 0
21 6 0
36 -6 0
33 -43 0
49 -37 0
-4 -37 0
-24 -34 0
22 -48 0
-45 44 0
39 27 0
15 -30 0
44 -24 0
-6 8 0
4 40 0
4 -43 0
-46 -3 0
19 -28 0
-47 36 0
30 -33 0
18 46 0
-49 -15 0
40 -48 0
-8 -43 0
