c PROBLEM_050_090_45  vars=50  clausulas=90  k=2
p cnf 50 90
16 33 0
-21 -29 0
-6 42 0
38 -8 0
-33 30 0
43 -18 0
-42 13 0
8 -5 0
-31 37 0
-9 -11 0
-33 41 0
36 -33 0
-42 -27 0
30 -18 0
37 -27 0
-15 2 0
-7 47 0
48 46 0
-28 7 0
3 -22 0
3 -6 0
47 -33 0
-21 -40 0
47 25 0
-25 26 0
24 -48 0
3 -39 0
39 -6 0
-47 33 0
-29 -1 0
37 32 0
28 -22 0
16 -24 0
19 22 0
-27 -40 0
42 -40 0
-8 3 0
-19 13 0
33 -1 0
-40 48 0
40 24 0
23 -43 0
39 -17 0
-47 -20 0
16 -6 0
27 -11 0
11 -35 0
34 24 0
-32 1 0
3 -23 0
-50 -30 0
21 12 0
7 39 0
-48 -47 0
32 -43 0
46 1 0
10 7 0
50 12 0
-21 -4 0
-38 -10 0
12 10 0
4 -26 0
5 -12 0
-34 -36 0
13 32 0
7 -34 0
-1 -11 0
-18 39 0
-16 7 0
-6 35 0
-15 -2 0
-14 30 0
42 -29 0
-3 -36 0
44 12 0
15 4 0
-31 -26 0
-8 -39 0
3 -45 0
6 -33 0
26 -44 0
12 26 0
-7 -36 0
23 45 0
-24 31 0
13 41 0
-49 -15 0
45 -42 0
-28 -16 0
-43 32 0
