c PROBLEM_050_090_15  vars=50  clausulas=90  k=2
p cnf 50 90
-48 17 0
14 15 0
35 -46 0
-41 -19 0
18 24 0
-26 35 0
20 42 0
-8 -45 0
-22 -23 0
-6 -3 0
27 42 0
-35 -9 0
-36 -30 0
-33 40 0
1 26 0
-46 -18 0
7 4 0
-20 -1 0
-5 21 0
-29 -35 0
19 48 0
48 7 0
-50 -15 0
-33 -43 0
2 48 0
12 -23 0
31 -36 0
22 -45 0
-20 -31 0
-31 -30 0
33 36 0
-22 -28 0
-42 16 0
13 28 0
30 -43 0
-5 -35 0
-43 -39 0
24 46 0
-45 8 0
-11 38 0
20 6 0
-32 47 0
-9 49 0
-1 -27 0
-16 34 0
8 39 0
-18 -29 0
44 37 0
8 -50 0
-38 -46 0
-26 32 0
32 15 0
-4 15 0
13 -35 0
36 -25 0
45 -40 0
34 9 0
12 -36 0
43 -24 0
26 -45 0
9 -17 0
-15 -10 0
16 -22 0
-20 37 0
10 23 0
19 20 0
19 31 0
-29 -26 0
-36 -20 0
-46 31 0
35 -27 0
40 -2 0
8 49 0
-2 33 0
-7 14 0
-6 45 0
-50 -7 0
-7 10 0
5 13 0
-7 22 0
23 -19 0
48 -50 0
-40 39 0
-41 37 0
7 46 0
-6 -10 0
6 -42 0
28 12 0
22 2 0
-8 -30 0
