c PROBLEM_050_090_33  vars=50  clausulas=90  k=2
p cnf 50 90
-29 42 0
2 -22 0
-25 34 0
-15 -50 0
-8 39 0
-24 33 0
4 -29 0
-40 -22 0
-17 1 0
-38 -25 0
-47 -8 0
-16 -5 0
11 -4 0
39 -32 0
43 35 0
-5 -32 0
-28 42 0
-41 -16 0
17 35 0
-5 -10 0
-6 16 0
33 36 0
23 -29 0
19 17 0
38 -31 0
14 -43 0
-31 -32 0
39 49 0
13 -8 0
-18 48 0
-45 15 0
47 25 0
25 22 0
4 -26 0
-44 -3 0
6 -49 0
-5 -7 0
-24 -41 0
-17 -39 0
7 -15 0
15 27 0
-35 -24 0
40 30 0
-30 6 0
41 -50 0
-13 44 0
-2 -22 0
39 5 0
40 -12 0
-5 50 0
22 -45 0
33 49 0
10 -41 0
-16 43 0
6 47 0
-11 49 0
-37 30 0
39 17 0
-12 43 0
11 38 0
36 49 0
21 26 0
-18 23 0
49 36 0
-41 20 0
-12 49 0
-13 -46 0
3 13 0
25 -48 0
-26 -39 0
18 -3 0
-44 28 0
-35 -41 0
-7 41 0
-26 -9 0
11 2 0
27 -21 0
-11 -19 0
-37 48 0
-42 -28 0
-41 -23 0
35 9 0
16 30 0
-9 -14 0
-5 43 0
-19 -17 0
-14 15 0
-27 -25 0
-1 27 0
-1 -9 0
