c PROBLEM_050_090_05  vars=50  clausulas=90  k=2
p cnf 50 90
3 32 0
-43 22 0
9 10 0
-25 -11 0
-18 34 0
-49 31 0
9 50 0
16 47 0
26 22 0
28 -14 0
-18 28 0
7 3 0
16 -47 0
44 -6 0
21 27 0
-20 -17 0
-30 -36 0
8 4 0
-15 40 0
-13 -36 0
49 5 0
-22 -13 0
-21 28 0
-22 48 0
31 -11 0
-16 20 0
42 4 0
4 29 0
-34 38 0
-33 15 0
22 8 0
-44 46 0
36 -29 0
-42 -5 0
35 -44 0
20 -17 0
-37 -28 0
49 1 0
-34 -46 0
-24 -20 0
49 -17 0
42 -50 0
45 -12 0
36 -12 0
44 -38 0
7 -24 0
-19 49 0
-32 -5 0
-4 8 0
42 -1 0
17 46 0
-45 -17 0
19 -14 0
-13 28 0
46 4 0
45 -12 0
-42 -34 0
-45 -2 0
-26 -34 0
-40 12 0
41 7 0
-47 46 0
-41 8 0
-37 -7 0
-6 -32 0
-9 35 0
34 27 0
-29 -50 0
-6 -1 0
-5 -3 0
42 -5 0
-9 16 0
-33 -47 0
16 -42 0
-2 1 0
38 1 0
-2 -50 0
-4 1 0
23 -30 0
22 -20 0
-29 -38 0
22 16 0
-27 -46 0
-47 21 0
-26 41 0
-20 33 0
23 -29 0
39 -32 0
27 -50 0
14 6 0
