c PROBLEM_050_090_31  vars=50  clausulas=90  k=2
p cnf 50 90
-42 -17 0
-2 -24 0
24 31 0
1 -15 0
6 50 0
-36 25 0
-32 -43 0
-33 3 0
10 22 0
27 -24 0
33 -28 0
-14 -49 0
46 -32 0
-21 -27 0
-24 -12 0
9 -16 0
-12 -16 0
43 7 0
38 -47 0
26 21 0
15 14 0
46 -33 0
-16 -3 0
27 -5 0
-46 -9 0
-45 31 0
-49 -37 0
50 46 0
-38 24 0
-18 28 0
-19 39 0
-26 47 0
-37 -32 0
28 -40 0
34 -48 0
15 35 0
-5 43 0
-29 13 0
36 -32 0
48 27 0
-30 2 0
-21 37 0
-2 9 0
44 -6 0
41 39 0
-40 28 0
-4 48 0
10 -35 0
-1 9 0
3 25 0
7 -28 0
44 24 0
38 36 0
-5 32 0
-13 1 0
-39 -22 0
-14 28 0
13 -43 0
37 40 0
-20 3 0
-3 31 0
-38 24 0
29 -4 0
48 -24 0
-24 -18 0
-14 -16 0
-31 44 0
23 11 0
-23 -25 0
34 -5 0
-11 -12 0
-43 -27 0
-24 -35 0
-20 3 0
33 -39 0
8 -15 0
-18 41 0
33 49 0
-45 31 0
32 -8 0
-30 -1 0
-20 37 0
-15 -20 0
-27 18 0
-45 35 0
-12 -10 0
-10 -42 0
42 44 0
-17 -9 0
-29 49 0
