c PROBLEM_050_090_22  vars=50  clausulas=90  k=2
p cnf 50 90
-30 -50 0
-37 42 0
3 -28 0
-46 14 0
-37 -43 0
11 20 0
10 7 0
-39 -13 0
7 -49 0
4 32 0
-19 -47 0
-37 9 0
27 39 0
45 -41 0
-38 -16 0
40 41 0
17 -21 0
-34 -22 0
-39 2 0
44 -30 0
8 23 0
-8 -24 0
46 -29 0
30 -14 0
10 -6 0
30 -44 0
-21 -32 0
48 5 0
-7 -26 0
-4 -30 0
-32 -21 0
-35 18 0
-9 11 0
40 -3 0
-7 -35 0
6 45 0
-43 -11 0
-31 -49 0
-13 -1 0
-24 -25 0
2 14 0
-45 -11 0
-7 15 0
11 26 0
-46 -20 0
-24 -43 0
13 39 0
-33 -10 0
49 -18 0
-5 -27 0
30 12 0
8 -45 0
33 29 0
-15 -49 0
-28 27 0
-45 -9 0
11 21 0
-50 -12 0
45 -48 0
-6 -42 0
-37 7 0
32 40 0
27 35 0
-34 -36 0
44 22 0
-15 36 0
8 25 0
-42 -26 0
-13 46 0
-43 17 0
-36 -34 0
-2 9 0
31 -32 0
-23 -43 0
24 -32 0
40 8 0
-23 -33 0
15 -50 0
9 -34 0
27 -8 0
39 -19 0
-6 -50 0
-27 50 0
16 37 0
-30 -41 0
-45 39 0
-42 17 0
4 27 0
-45 14 0
-27 -46 0
