c PROBLEM_050_090_18  vars=50  clausulas=90  k=2
p cnf 50 90
18 17 0
36 20 0
25 42 0
28 15 0
14 -31 0
24 -50 0
46 3 0
1 -33 0
36 2 0
-47 30 0
34 39 0
-31 24 0
30 23 0
38 -15 0
-45 -34 0
23 9 0
-15 -30 0
-37 49 0
39 -43 0
26 18 0
50 49 0
34 7 0
27 18 0
3 -11 0
-29 4 0
-10 -3 0
18 -11 0
41 -5 0
4 -24 0
-38 21 0
44 27 0
29 -2 0
-12 5 0
20 13 0
36 -10 0
-14 39 0
47 26 0
-4 33 0
17 -2 0
26 -45 0
12 -31 0
-39 49 0
-40 -28 0
13 23 0
4 -36 0
3 2 0
7 44 0
-48 -24 0
21 6 0
27 -14 0
-28 -19 0
1 -11 0
-29 17 0
-20 -47 0
-15 30 0
44 49 0
-40 -46 0
-3 -43 0
28 7 0
35 -31 0
-25 28 0
-22 -37 0
1 41 0
39 13 0
17 -46 0
-5 -37 0
26 14 0
3 12 0
21 35 0
-32 4 0
-8 -6 0
-1 7 0
6 17 0
-31 -19 0
8 -40 0
44 -50 0
-24 31 0
-32 -40 0
-45 5 0
-3 -43 0
16 -9 0
17 -30 0
-33 -35 0
-30 6 0
-1 49 0
41 11 0
19 37 0
-27 3 0
28 15 0
-33 -21 0
