c PROBLEM_050_090_39  vars=50  clausulas=90  k=2
p cnf 50 90
28 39 0
-18 26 0
-27 19 0
47 -28 0
35 3 0
34 -10 0
8 -30 0
-8 13 0
-15 34 0
19 -18 0
30 40 0
33 -8 0
-14 -20 0
28 27 0
24 -3 0
13 -30 0
5 -14 0
40 -34 0
-22 37 0
-30 16 0
9 8 0
25 33 0
-22 -36 0
15 13 0
39 -43 0
-5 6 0
-24 19 0
20 40 0
40 11 0
1 16 0
19 11 0
8 -20 0
-17 -28 0
37 -45 0
-11 -17 0
-48 38 0
-1 3 0
-1 -2 0
-6 -4 0
-44 43 0
-43 -46 0
-41 -9 0
2 -29 0
-45 -19 0
10 -36 0
16 29 0
4 -50 0
22 11 0
-48 -6 0
11 2 0
27 45 0
42 11 0
-21 2 0
13 -34 0
18 21 0
47 -24 0
-42 49 0
-42 -28 0
38 31 0
-39 -19 0
-28 7 0
-14 -28 0
23 -33 0
15 -7 0
-35 -22 0
-37 40 0
-6 36 0
-36 -29 0
-7 -12 0
32 47 0
-32 37 0
39 -16 0
45 -47 0
39 -3 0
-32 48 0
-44 10 0
27 41 0
31 12 0
-35 4 0
44 -5 0
-42 37 0
7 10 0
-46 23 0
-45 46 0
-27 -23 0
23 -18 0
49 22 0
-40 47 0
-46 -17 0
43 16 0
