c PROBLEM_025_060_29  vars=25  clausulas=60  k=2
p cnf 25 60
-16 -1 0
11 25 0
23 1 0
-20 -14 0
9 23 0
-6 -5 0
3 -21 0
5 21 0
3 -13 0
20 13 0
15 -6 0
-10 -25 0
15 -12 0
25 -4 0
8 21 0
19 -8 0
23 1 0
16 -3 0
9 -5 0
24 3 0
-2 20 0
-11 -16 0
23 13 0
-22 -6 0
-16 -25 0
2 -18 0
22 -12 0
-23 14 0
25 20 0
15 -11 0
-11 19 0
-25 15 0
-14 21 0
-7 15 0
23 -15 0
20 3 0
12 -17 0
-24 -9 0
-21 3 0
12 -21 0
-23 -2 0
-23 25 0
-6 12 0
-24 -11 0
-24 22 0
19 -2 0
14 -16 0
15 -3 0
-20 9 0
8 -15 0
-6 14 0
-13 -24 0
22 -18 0
19 8 0
-22 19 0
-7 -25 0
-4 -6 0
16 21 0
-14 1 0
9 11 0
