c PROBLEM_025_060_38  vars=25  clausulas=60  k=2
p cnf 25 60
-23 21 0
-1 -20 0
-12 -11 0
3 11 0
24 -7 0
20 24 0
-8 7 0
11 -13 0
-10 12 0
8 -3 0
5 24 0
20 -16 0
-10 22 0
16 24 0
-15 -1 0
2 9 0
-16 -18 0
22 -13 0
-2 8 0
-14 12 0
22 -5 0
6 -21 0
-9 -2 0
5 22 0
22 -15 0
-19 -14 0
8 6 0
14 7 0
7 -11 0
-25 -21 0
7 19 0
-4 17 0
-24 -9 0
18 23 0
-25 -4 0
-12 -16 0
-7 -13 0
-15 16 0
-23 1 0
9 7 0
-7 -12 0
-24 -10 0
15 -12 0
11 -24 0
13 -20 0
7 22 0
17 -8 0
-21 -14 0
-20 -22 0
-13 -18 0
14 -10 0
24 15 0
-16 15 0
1 -16 0
15 12 0
19 -6 0
12 -9 0
6 8 0
6 11 0
-13 -24 0
