c PROBLEM_025_060_21  vars=25  clausulas=60  k=2
p cnf 25 60
-13 -7 0
9 -10 0
25 6 0
13 -15 0
-20 -18 0
-2 7 0
-20 24 0
20 -6 0
-23 -14 0
3 -1 0
-5 8 0
-12 -11 0
-3 16 0
17 -7 0
-22 1 0
-22 -8 0
22 -13 0
18 13 0
12 20 0
5 20 0
17 -18 0
22 11 0
-7 -22 0
-12 23 0
3 21 0
13 -14 0
-25 -1 0
-6 -12 0
21 15 0
6 23 0
-5 9 0
-7 1 0
6 20 0
9 18 0
8 -3 0
24 1 0
-22 -23 0
25 -9 0
17 2 0
-12 17 0
10 -15 0
12 -19 0
-21 19 0
-15 19 0
-16 18 0
6 -18 0
25 -14 0
24 4 0
8 16 0
12 11 0
-15 9 0
3 11 0
-19 -2 0
-7 3 0
15 -3 0
-25 21 0
1 -16 0
13 16 0
3 19 0
24 -22 0
