c PROBLEM_025_060_13  vars=25  clausulas=60  k=2
p cnf 25 60
-4 18 0
14 -2 0
-7 -21 0
1 12 0
-1 -11 0
22 -3 0
10 -24 0
-12 15 0
20 -24 0
-19 11 0
10 -18 0
15 6 0
-3 12 0
-2 -23 0
7 -6 0
1 25 0
12 -9 0
-8 -17 0
5 -18 0
2 -6 0
-23 -24 0
-9 11 0
-1 -22 0
2 12 0
-17 -25 0
-20 11 0
-12 -7 0
-21 -12 0
6 -11 0
12 -5 0
19 2 0
-10 21 0
-21 -16 0
-6 22 0
-17 6 0
24 -23 0
10 -5 0
18 -20 0
-6 25 0
2 -17 0
19 -4 0
-18 13 0
-13 -21 0
16 -8 0
-25 6 0
8 11 0
1 -2 0
14 -24 0
14 -16 0
25 15 0
17 6 0
-1 -12 0
-22 -19 0
-6 20 0
-9 -21 0
-18 17 0
-19 -17 0
-4 -13 0
-13 -23 0
-14 22 0
