c PROBLEM_025_060_47  vars=25  clausulas=60  k=2
p cnf 25 60
-8 15 0
-24 -13 0
11 10 0
18 24 0
-7 -3 0
-13 21 0
-17 -24 0
-18 19 0
-22 1 0
13 -14 0
13 16 0
18 -11 0
-18 15 0
-8 20 0
-5 -9 0
-23 -11 0
-13 23 0
12 10 0
-15 16 0
15 3 0
-6 -18 0
-13 9 0
-7 20 0
-8 12 0
18 -9 0
-2 -21 0
22 -23 0
-6 3 0
20 -9 0
5 1 0
-21 20 0
-10 1 0
-23 5 0
-21 1 0
4 -14 0
-3 -18 0
-24 -13 0
25 -6 0
-4 18 0
10 -21 0
9 -15 0
15 3 0
-13 14 0
16 2 0
-15 -3 0
22 21 0
-23 -5 0
-8 -23 0
-25 7 0
7 -18 0
-14 -23 0
16 11 0
13 -5 0
-2 -19 0
16 -12 0
-23 4 0
-19 2 0
1 -9 0
-9 -21 0
21 1 0
