c PROBLEM_025_060_20  vars=25  clausulas=60  k=2
p cnf 25 60
24 3 0
-2 1 0
-15 -25 0
21 10 0
-23 -20 0
-18 -25 0
-23 21 0
-22 9 0
-12 18 0
-12 -15 0
4 11 0
-11 12 0
1 16 0
8 -23 0
18 -20 0
20 2 0
20 -4 0
-7 -25 0
-6 -4 0
9 -20 0
-20 -24 0
10 15 0
7 -18 0
16 -15 0
-14 15 0
14 -25 0
-10 14 0
5 -9 0
-8 16 0
-5 15 0
-1 -10 0
3 -16 0
5 -14 0
-17 -11 0
19 -6 0
2 12 0
-13 22 0
15 -19 0
23 4 0
-19 20 0
24 -6 0
11 -15 0
-25 -18 0
-8 -10 0
-14 2 0
-19 -17 0
-8 15 0
2 19 0
16 -7 0
-22 -12 0
-3 18 0
-22 -9 0
-6 -18 0
-9 -25 0
11 14 0
25 -3 0
3 25 0
1 -25 0
20 -5 0
-23 8 0
