c PROBLEM_025_060_24  vars=25  clausulas=60  k=2
p cnf 25 60
10 7 0
18 -25 0
-16 2 0
6 22 0
5 2 0
-6 -1 0
-22 15 0
-22 1 0
-12 -4 0
-13 3 0
-20 -14 0
18 3 0
-21 -4 0
-17 4 0
-13 22 0
20 1 0
15 -18 0
2 23 0
-16 -14 0
20 -7 0
-21 -9 0
21 10 0
-3 17 0
-19 -24 0
-21 -5 0
-7 1 0
-2 12 0
20 -14 0
-11 -10 0
18 -9 0
18 -4 0
8 -25 0
-18 3 0
6 10 0
5 2 0
-22 7 0
-15 24 0
-6 -7 0
20 -9 0
19 14 0
6 -24 0
19 -17 0
-10 -22 0
25 -9 0
-9 23 0
16 23 0
5 -9 0
-12 22 0
-6 11 0
-16 -1 0
-22 -21 0
1 5 0
3 23 0
-5 -13 0
21 17 0
-21 -3 0
-15 11 0
-6 17 0
15 13 0
-8 3 0
