c PROBLEM_025_060_32  vars=25  clausulas=60  k=2
p cnf 25 60
-23 -24 0
-6 9 0
6 1 0
17 -1 0
-17 -14 0
-15 11 0
16 -10 0
-16 8 0
-2 -14 0
17 -6 0
-12 16 0
11 -4 0
-6 -23 0
9 3 0
-1 18 0
-5 -16 0
2 22 0
-1 2 0
-7 -24 0
16 -3 0
-18 9 0
-25 -16 0
-12 7 0
16 -13 0
16 19 0
-7 17 0
-2 -17 0
8 -15 0
-22 11 0
-10 -12 0
11 -18 0
9 -11 0
21 10 0
21 22 0
13 2 0
3 4 0
-1 -11 0
14 -8 0
-14 12 0
-6 7 0
24 11 0
-23 6 0
-18 24 0
6 -23 0
16 -13 0
-2 6 0
21 -7 0
-19 12 0
-3 -13 0
15 8 0
6 -21 0
1 -23 0
-8 -25 0
-8 3 0
2 10 0
-7 20 0
-3 10 0
15 3 0
-22 15 0
-22 6 0
