c PROBLEM_025_060_30  vars=25  clausulas=60  k=2
p cnf 25 60
5 9 0
-22 12 0
14 -24 0
23 -21 0
-17 20 0
12 18 0
-4 -9 0
-11 -16 0
-8 -14 0
-24 1 0
-8 -14 0
-25 -23 0
4 -16 0
-10 19 0
2 25 0
-8 -4 0
-21 22 0
14 24 0
-13 -19 0
-20 15 0
8 -25 0
6 -1 0
24 -23 0
-13 -5 0
-24 12 0
-20 -6 0
4 -13 0
-23 24 0
6 17 0
11 -10 0
8 14 0
1 -25 0
12 20 0
9 -10 0
16 -17 0
9 23 0
7 14 0
-19 14 0
-6 7 0
-25 -13 0
7 5 0
10 6 0
21 -24 0
17 -23 0
-11 2 0
6 -15 0
-11 -9 0
-19 11 0
-19 3 0
-13 11 0
-11 -8 0
8 14 0
-4 6 0
-20 -16 0
-19 6 0
8 3 0
-21 2 0
-2 10 0
-20 -15 0
3 -2 0
