c PROBLEM_025_060_45  vars=25  clausulas=60  k=2
p cnf 25 60
-19 -13 0
18 8 0
20 7 0
-19 2 0
20 9 0
12 21 0
-5 -25 0
-6 -25 0
23 10 0
1 -6 0
17 10 0
-24 -19 0
-24 -6 0
-18 12 0
3 -2 0
23 10 0
-11 -17 0
-15 -8 0
3 -21 0
-17 -25 0
-7 5 0
24 20 0
-6 -14 0
-9 -6 0
-3 -4 0
-5 20 0
-6 17 0
-5 -23 0
23 11 0
-15 21 0
22 -5 0
-13 -22 0
24 -3 0
1 4 0
-17 16 0
-22 1 0
22 10 0
5 -19 0
11 -19 0
-6 -24 0
15 8 0
3 -12 0
-23 8 0
-3 14 0
2 -9 0
-22 11 0
-8 -16 0
-20 7 0
-14 -21 0
-9 13 0
17 -19 0
2 23 0
8 -16 0
-7 -22 0
11 20 0
-25 19 0
13 -1 0
21 -9 0
19 -4 0
-20 25 0
