c PROBLEM_025_060_34  vars=25  clausulas=60  k=2
p cnf 25 60
3 22 0
-8 -12 0
-14 20 0
16 10 0
17 6 0
25 -15 0
13 2 0
2 -18 0
-11 -9 0
16 25 0
-8 -6 0
-12 7 0
1 -10 0
19 -22 0
22 15 0
24 14 0
21 -10 0
-3 10 0
4 -21 0
-13 -19 0
17 -23 0
-15 23 0
19 -16 0
3 -18 0
-15 -3 0
-4 -3 0
5 -14 0
-13 22 0
24 13 0
-23 7 0
-12 -4 0
21 -3 0
16 -19 0
-4 22 0
22 13 0
13 11 0
5 3 0
-12 -14 0
5 -14 0
17 -18 0
4 20 0
1 -7 0
-16 6 0
14 -18 0
-15 -22 0
-22 8 0
18 -6 0
13 7 0
9 7 0
-25 12 0
-16 20 0
-18 15 0
25 20 0
-24 7 0
-14 -15 0
22 -3 0
15 1 0
-4 -14 0
-4 -9 0
3 18 0
