c PROBLEM_025_060_03  vars=25  clausulas=60  k=2
p cnf 25 60
-5 -22 0
10 -11 0
1 6 0
16 21 0
21 -5 0
11 25 0
-18 -15 0
-6 -21 0
-24 -6 0
6 20 0
-4 24 0
18 -12 0
23 5 0
15 -16 0
5 -20 0
-14 -16 0
-14 -17 0
19 7 0
-11 4 0
1 -22 0
20 4 0
-17 -10 0
-22 -12 0
22 -18 0
-11 -5 0
2 5 0
-6 18 0
5 21 0
10 5 0
6 -7 0
18 19 0
6 -2 0
9 22 0
-2 25 0
-15 -24 0
-14 -4 0
13 -1 0
3 8 0
-7 6 0
21 18 0
-25 22 0
-21 -1 0
9 12 0
-16 24 0
-10 -2 0
-16 5 0
17 -12 0
-8 13 0
-18 -23 0
-15 1 0
7 3 0
-21 5 0
-18 20 0
-25 15 0
20 -18 0
3 17 0
25 -23 0
-8 24 0
-20 -11 0
15 19 0
