c PROBLEM_025_060_40  vars=25  clausulas=60  k=2
p cnf 25 60
15 -10 0
-17 -14 0
16 23 0
17 1 0
16 13 0
12 -7 0
12 -2 0
10 -25 0
-15 -8 0
-9 -22 0
-17 22 0
-13 23 0
-24 20 0
19 -25 0
2 -24 0
-15 11 0
-6 3 0
-13 -15 0
-12 6 0
-15 12 0
8 -21 0
-2 -21 0
3 -10 0
-24 22 0
25 -12 0
25 19 0
-21 -7 0
10 17 0
-21 2 0
-19 -13 0
14 6 0
13 6 0
13 9 0
19 -3 0
5 -14 0
11 6 0
-17 -1 0
-2 3 0
6 15 0
23 -21 0
22 -21 0
13 -17 0
-18 -24 0
-2 5 0
-18 -11 0
-5 20 0
-15 -10 0
7 -3 0
2 -14 0
-19 1 0
-15 -13 0
-4 1 0
-20 -13 0
1 -15 0
2 -18 0
4 2 0
-18 -15 0
-8 1 0
-22 14 0
24 -22 0
