c PROBLEM_025_060_18  vars=25  clausulas=60  k=2
p cnf 25 60
20 -12 0
25 1 0
12 24 0
16 -8 0
6 24 0
-22 -13 0
14 -16 0
-24 11 0
19 -9 0
5 9 0
23 18 0
5 16 0
-24 -20 0
-15 18 0
25 -2 0
5 23 0
17 -5 0
8 18 0
-5 13 0
-21 12 0
13 1 0
14 23 0
2 -19 0
-1 -7 0
-23 -18 0
-14 -11 0
3 25 0
-16 -6 0
-13 -7 0
-20 -6 0
-8 5 0
-23 -20 0
25 -8 0
-12 -9 0
1 -24 0
-4 20 0
-18 24 0
1 -6 0
-11 12 0
10 -12 0
20 -24 0
6 19 0
24 15 0
-17 -25 0
-13 -3 0
-21 10 0
8 10 0
-22 -2 0
-7 -12 0
-10 13 0
7 -14 0
15 9 0
-13 18 0
-5 7 0
10 -20 0
-3 -17 0
3 -20 0
11 24 0
-4 2 0
20 -24 0
