c PROBLEM_025_060_05  vars=25  clausulas=60  k=2
p cnf 25 60
-25 -1 0
-6 -20 0
-8 -12 0
-9 -6 0
24 7 0
-9 -20 0
11 -3 0
-2 -6 0
-1 -25 0
1 25 0
17 -25 0
5 22 0
-5 3 0
-16 23 0
25 19 0
14 16 0
15 -9 0
-12 -19 0
21 -2 0
8 17 0
20 -3 0
14 6 0
13 10 0
-11 -12 0
-1 16 0
13 -6 0
6 24 0
-23 13 0
11 20 0
-20 -21 0
-15 -11 0
15 -9 0
-21 -5 0
10 -19 0
-25 -4 0
-20 -21 0
-20 -6 0
-16 -1 0
18 -22 0
-18 13 0
8 6 0
-22 9 0
1 17 0
17 -8 0
21 7 0
7 -11 0
-11 -21 0
-10 9 0
-21 -25 0
-3 -20 0
-25 4 0
-1 2 0
22 19 0
-8 23 0
18 20 0
-18 3 0
-20 -21 0
15 17 0
-2 17 0
-13 2 0
