c PROBLEM_025_060_19  vars=25  clausulas=60  k=2
p cnf 25 60
-15 6 0
-25 20 0
8 -14 0
17 6 0
-22 5 0
-6 2 0
9 21 0
-19 -16 0
2 -14 0
-25 8 0
5 -22 0
-7 10 0
18 -10 0
-11 9 0
17 12 0
-5 -2 0
7 8 0
4 20 0
1 -2 0
17 11 0
20 -16 0
22 -12 0
19 25 0
-6 20 0
-19 14 0
14 2 0
-24 16 0
-25 -18 0
-15 -4 0
13 3 0
5 1 0
19 1 0
-21 23 0
13 -16 0
3 25 0
-4 -25 0
10 -2 0
12 10 0
-13 -17 0
13 -2 0
-16 -19 0
-10 11 0
12 20 0
13 4 0
-12 7 0
-17 21 0
9 15 0
17 -8 0
-11 -22 0
-25 5 0
-12 23 0
-22 -25 0
-10 18 0
22 3 0
12 -22 0
25 -22 0
-20 -22 0
-16 2 0
-20 -7 0
24 4 0
