c PROBLEM_025_060_46  vars=25  clausulas=60  k=2
p cnf 25 60
7 -6 0
17 23 0
-6 15 0
-22 25 0
-18 22 0
19 4 0
11 -13 0
-17 -23 0
6 -4 0
3 -1 0
16 25 0
-4 -11 0
18 -9 0
16 -3 0
-3 22 0
-11 -19 0
-5 8 0
-13 -6 0
-1 15 0
2 9 0
-18 3 0
-11 -1 0
-14 -1 0
16 -1 0
15 -12 0
-12 -24 0
-1 -16 0
-16 -25 0
20 10 0
-15 8 0
25 -20 0
1 -7 0
7 -17 0
3 -21 0
-5 -12 0
-16 10 0
1 3 0
-6 -12 0
-10 20 0
-1 19 0
-20 -5 0
20 24 0
-13 -5 0
-6 8 0
5 -8 0
15 -2 0
-2 -13 0
21 4 0
1 16 0
15 5 0
6 -13 0
8 19 0
-6 -12 0
10 21 0
10 21 0
13 12 0
20 5 0
-9 -12 0
-11 -12 0
22 -2 0
