c PROBLEM_025_060_23  vars=25  clausulas=60  k=2
p cnf 25 60
5 -20 0
-18 7 0
-13 15 0
5 16 0
-23 9 0
12 4 0
-15 -23 0
4 16 0
20 7 0
21 -10 0
19 -17 0
18 -3 0
12 15 0
-1 -25 0
23 5 0
23 -12 0
21 -14 0
-18 16 0
-19 -7 0
-14 24 0
-21 10 0
24 -1 0
-17 3 0
23 -3 0
20 16 0
-25 1 0
17 -12 0
-17 10 0
-19 16 0
-25 -11 0
-22 -14 0
13 12 0
-8 25 0
4 17 0
13 -12 0
9 -7 0
14 -22 0
22 25 0
3 10 0
4 -25 0
-12 -8 0
13 -11 0
16 19 0
6 -5 0
-18 6 0
-10 -25 0
22 -23 0
-19 11 0
25 -18 0
-2 -15 0
-22 -3 0
3 -24 0
-22 9 0
-2 24 0
-18 1 0
-13 -3 0
-22 2 0
12 11 0
1 -24 0
11 -21 0
