c PROBLEM_025_060_49  vars=25  clausulas=60  k=2
p cnf 25 60
23 3 0
10 -18 0
-10 13 0
-18 -3 0
-3 22 0
-16 6 0
-9 -11 0
10 -15 0
-16 5 0
8 12 0
-1 -15 0
1 -12 0
-18 8 0
3 7 0
-9 2 0
20 -15 0
-2 -12 0
-25 -13 0
21 10 0
-25 13 0
-18 -8 0
-25 -14 0
-10 3 0
3 15 0
-5 11 0
2 -3 0
22 -24 0
-24 -10 0
21 -1 0
2 -8 0
-19 24 0
-1 11 0
-6 16 0
-6 -10 0
15 2 0
8 -10 0
-4 2 0
13 11 0
-9 -11 0
-4 3 0
17 -23 0
-7 -22 0
21 5 0
4 -5 0
5 20 0
-15 7 0
15 7 0
-3 -13 0
-11 23 0
-25 10 0
18 -13 0
-5 17 0
-24 19 0
-19 18 0
15 6 0
-4 -25 0
-23 5 0
-19 3 0
18 -15 0
1 17 0
