c PROBLEM_025_060_36  vars=25  clausulas=60  k=2
p cnf 25 60
17 -19 0
-25 4 0
20 25 0
8 -9 0
-14 5 0
-13 -4 0
-15 -1 0
-1 -8 0
5 -14 0
-4 -11 0
6 -21 0
-2 -20 0
10 -4 0
-4 17 0
4 5 0
-24 -12 0
8 14 0
-10 2 0
-12 21 0
23 -11 0
-4 -13 0
-21 -4 0
-10 12 0
9 11 0
9 -17 0
-2 24 0
23 10 0
-2 -19 0
-5 7 0
-18 4 0
10 8 0
15 18 0
19 -23 0
-6 -5 0
7 9 0
-22 16 0
12 23 0
-25 22 0
11 2 0
-5 6 0
11 -9 0
12 22 0
-21 -13 0
-25 -10 0
13 6 0
-24 -11 0
5 -14 0
17 -3 0
-9 19 0
-6 4 0
17 -23 0
5 -4 0
-13 1 0
25 19 0
2 -4 0
-15 1 0
25 -23 0
-22 17 0
-7 1 0
3 24 0
