c PROBLEM_025_060_44  vars=25  clausulas=60  k=2
p cnf 25 60
1 24 0
-15 8 0
-8 12 0
-2 6 0
5 -20 0
2 -11 0
12 19 0
-3 1 0
-17 14 0
19 11 0
12 14 0
5 15 0
-20 -3 0
11 -13 0
18 21 0
16 5 0
-8 10 0
-14 25 0
-19 -24 0
-3 -17 0
7 -12 0
-6 19 0
-24 7 0
-25 -14 0
-3 14 0
-19 -17 0
-9 -13 0
-16 -21 0
-7 15 0
23 -6 0
13 10 0
-4 23 0
-16 -9 0
12 -22 0
-2 -5 0
-10 3 0
5 -4 0
-7 4 0
13 -8 0
16 -24 0
21 -22 0
-9 -22 0
-9 -18 0
-14 15 0
18 -12 0
-6 -21 0
-3 15 0
12 -2 0
13 -17 0
8 -16 0
-4 2 0
-15 19 0
5 -11 0
-22 -12 0
-23 -1 0
-13 2 0
19 -24 0
-1 -21 0
16 -13 0
-3 -4 0
