c PROBLEM_025_060_22  vars=25  clausulas=60  k=2
p cnf 25 60
-15 -19 0
-17 -3 0
9 -17 0
-24 21 0
18 -16 0
-23 -4 0
9 -16 0
25 -17 0
-17 1 0
1 5 0
-2 1 0
19 -15 0
-17 -25 0
-23 14 0
18 12 0
8 23 0
-19 16 0
7 20 0
14 -8 0
19 -11 0
-8 3 0
17 16 0
-13 21 0
18 12 0
8 20 0
25 18 0
-11 12 0
16 17 0
-21 16 0
25 -16 0
12 11 0
-25 22 0
5 12 0
23 -2 0
-7 -25 0
-8 2 0
-23 -8 0
19 11 0
-15 25 0
-1 -21 0
-14 -15 0
18 8 0
-25 10 0
22 -16 0
15 10 0
-12 11 0
6 3 0
24 11 0
16 6 0
-4 -24 0
23 -1 0
1 -22 0
7 5 0
-15 22 0
-9 -21 0
-22 -19 0
-23 -10 0
4 5 0
-23 19 0
7 5 0
