c PROBLEM_010_070_25  vars=10  clausulas=70  k=2
p cnf 10 70
-2 8 0
-2 1 0
8 -2 0
-1 2 0
-3 -1 0
3 10 0
5 -6 0
6 8 0
-4 5 0
5 2 0
-2 3 0
-4 1 0
-5 -6 0
5 2 0
10 -8 0
-3 8 0
-8 9 0
10 5 0
4 10 0
3 10 0
2 -7 0
5 2 0
9 2 0
9 7 0
-10 5 0
-7 -10 0
-6 8 0
-5 -1 0
-6 -9 0
9 -2 0
-9 -3 0
-7 6 0
-8 -3 0
-9 -5 0
-4 -5 0
-1 10 0
9 -7 0
10 4 0
6 1 0
-2 10 0
10 2 0
-10 -2 0
-4 -5 0
-9 7 0
4 -3 0
-7 8 0
-1 -2 0
-5 10 0
-5 4 0
8 9 0
-4 -2 0
-4 3 0
3 -4 0
-9 -8 0
9 10 0
-9 8 0
-5 6 0
-8 -7 0
9 -7 0
2 3 0
5 2 0
-10 -1 0
10 4 0
4 -10 0
6 -9 0
10 -9 0
7 6 0
-8 10 0
-4 -5 0
10 3 0
