c PROBLEM_010_070_01  vars=10  clausulas=70  k=2
p cnf 10 70
4 -8 0
6 9 0
-2 -9 0
-6 -9 0
7 2 0
-4 2 0
6 -4 0
9 -4 0
-9 5 0
-9 10 0
4 -9 0
8 -9 0
8 3 0
-3 -10 0
-1 -3 0
-1 3 0
-5 4 0
2 5 0
-7 -4 0
3 6 0
5 -6 0
4 9 0
-5 1 0
-2 -9 0
-10 6 0
-4 2 0
-4 -9 0
-8 9 0
7 1 0
10 5 0
-4 2 0
-7 -9 0
-10 -6 0
-3 9 0
3 -5 0
-9 5 0
-6 2 0
4 -1 0
-5 -4 0
-4 1 0
6 -7 0
1 4 0
-7 9 0
8 -1 0
8 3 0
-1 -7 0
-6 -3 0
-1 -7 0
-6 -10 0
-9 -10 0
-4 -5 0
1 7 0
2 3 0
4 -1 0
8 -9 0
3 -2 0
5 8 0
-5 9 0
5 -10 0
5 -7 0
6 2 0
4 -1 0
-4 -2 0
2 7 0
2 7 0
-2 -10 0
2 -6 0
6 8 0
2 9 0
-4 6 0
