c PROBLEM_010_070_06  vars=10  clausulas=70  k=2
p cnf 10 70
-6 -1 0
-8 -6 0
7 10 0
5 2 0
-10 -1 0
-9 10 0
6 -9 0
10 7 0
1 -8 0
-3 -7 0
-7 -8 0
-4 1 0
6 7 0
-5 2 0
-4 -10 0
-6 5 0
-5 10 0
10 -2 0
6 -2 0
9 3 0
-10 6 0
-3 7 0
2 -10 0
9 -4 0
4 -2 0
-7 -10 0
-3 -5 0
2 -6 0
-9 8 0
-8 3 0
3 9 0
1 9 0
4 8 0
-4 -10 0
-4 1 0
9 -6 0
7 10 0
3 2 0
-2 5 0
10 7 0
-10 -4 0
2 3 0
-2 6 0
-6 -7 0
6 -4 0
10 2 0
-3 5 0
7 9 0
4 2 0
1 -6 0
3 -2 0
10 5 0
-8 2 0
2 -6 0
-6 9 0
-2 -4 0
9 3 0
-6 -2 0
-2 -5 0
8 4 0
-10 2 0
8 -3 0
-6 7 0
2 -7 0
1 9 0
-4 2 0
9 5 0
-5 9 0
-6 -4 0
-6 10 0
