c PROBLEM_010_070_48  vars=10  clausulas=70  k=2
p cnf 10 70
-7 -2 0
-6 -1 0
3 -10 0
-4 9 0
-4 -3 0
-7 9 0
4 10 0
5 -4 0
-3 1 0
-6 2 0
-2 -6 0
6 4 0
6 -4 0
3 2 0
-6 7 0
-1 -4 0
6 -8 0
-2 7 0
6 -10 0
9 2 0
-1 -4 0
3 6 0
8 -5 0
1 8 0
-10 6 0
-10 -3 0
-1 -6 0
-3 7 0
-7 3 0
6 8 0
2 4 0
6 2 0
-8 9 0
-7 -8 0
-4 10 0
-9 5 0
1 -3 0
2 6 0
8 3 0
-4 -9 0
1 -8 0
5 -3 0
8 -2 0
-2 4 0
-6 3 0
4 -3 0
5 -9 0
1 -8 0
9 4 0
2 3 0
9 6 0
9 5 0
8 10 0
1 10 0
-5 -1 0
-9 -2 0
-5 -2 0
-3 7 0
1 3 0
6 7 0
-3 5 0
6 -9 0
4 -10 0
1 2 0
3 -10 0
7 6 0
-2 -1 0
-7 2 0
8 2 0
7 -6 0
