c PROBLEM_015_090_21  vars=15  clausulas=90  k=2
p cnf 15 90
2 13 0
3 -4 0
-7 11 0
2 -3 0
-8 -1 0
4 -13 0
-9 -10 0
4 7 0
11 4 0
8 14 0
1 -9 0
-7 -14 0
4 8 0
8 15 0
-14 6 0
-7 -14 0
9 7 0
-8 3 0
-9 1 0
-9 -7 0
7 -15 0
-14 -6 0
-2 10 0
13 12 0
11 12 0
4 6 0
8 -11 0
14 15 0
12 7 0
10 8 0
-2 1 0
4 11 0
-13 1 0
-8 13 0
-11 -1 0
-3 -11 0
10 -15 0
11 4 0
-14 -6 0
13 9 0
7 4 0
-6 -3 0
-9 13 0
1 6 0
-6 15 0
-13 2 0
15 -1 0
10 2 0
-5 -9 0
15 -11 0
11 -2 0
4 -8 0
4 -9 0
2 14 0
-14 -12 0
3 -13 0
6 14 0
-7 12 0
12 10 0
-5 10 0
-3 7 0
7 -13 0
11 5 0
10 -3 0
-15 10 0
-5 -2 0
-9 -1 0
-2 -8 0
-10 -7 0
-8 10 0
-12 6 0
7 3 0
3 1 0
-9 -8 0
6 15 0
10 -6 0
-12 2 0
7 12 0
7 9 0
-15 -11 0
-9 -2 0
12 -8 0
12 6 0
-10 -11 0
3 13 0
-9 13 0
15 -2 0
-2 4 0
3 -7 0
11 -4 0
