c PROBLEM_015_090_17  vars=15  clausulas=90  k=2
p cnf 15 90
-15 11 0
15 5 0
6 -1 0
5 -13 0
-15 -3 0
-8 11 0
3 7 0
15 2 0
-14 -15 0
-11 15 0
-2 13 0
1 -6 0
7 6 0
-14 7 0
-14 -7 0
-14 15 0
-3 13 0
-5 -15 0
-7 15 0
-10 8 0
-12 -4 0
2 10 0
-5 12 0
-10 2 0
6 9 0
-8 -9 0
9 -4 0
-11 -12 0
-3 13 0
-11 7 0
15 3 0
7 -3 0
-9 -4 0
-6 10 0
8 5 0
-7 13 0
-9 -1 0
-15 1 0
15 -6 0
-9 11 0
-3 -5 0
2 -11 0
8 -10 0
15 -13 0
15 9 0
-12 13 0
-6 13 0
-11 -9 0
15 -12 0
6 -15 0
-9 1 0
-4 7 0
7 12 0
14 13 0
-14 -15 0
15 4 0
12 6 0
-13 5 0
-8 3 0
15 -7 0
-3 -2 0
12 -9 0
-5 -13 0
-2 15 0
10 1 0
-14 4 0
-7 15 0
10 -7 0
-14 -8 0
5 -12 0
1 7 0
-15 8 0
9 12 0
6 11 0
11 -2 0
7 6 0
14 -13 0
-9 -10 0
14 4 0
12 10 0
-13 7 0
-2 -14 0
12 6 0
-6 -9 0
4 7 0
-5 6 0
-13 -3 0
-11 3 0
13 15 0
14 6 0
