c PROBLEM_015_090_27  vars=15  clausulas=90  k=2
p cnf 15 90
6 15 0
6 -3 0
-11 2 0
5 -4 0
13 -7 0
-7 3 0
9 -12 0
10 -2 0
-11 -5 0
-4 12 0
12 3 0
13 11 0
-15 12 0
14 11 0
4 2 0
1 4 0
12 1 0
-9 5 0
-1 9 0
14 -15 0
-11 -4 0
-4 -15 0
12 -9 0
-4 14 0
-8 13 0
-14 12 0
7 -8 0
8 -5 0
-8 -5 0
-2 -15 0
-4 14 0
-2 8 0
-14 -7 0
-2 -4 0
5 4 0
14 12 0
-12 6 0
-7 -8 0
-1 12 0
-3 14 0
3 -12 0
8 -9 0
4 -5 0
-6 14 0
12 -11 0
1 8 0
6 10 0
-8 5 0
-13 5 0
13 -1 0
13 7 0
-9 -7 0
-12 1 0
-9 -8 0
14 -6 0
-7 -4 0
7 -6 0
7 9 0
15 10 0
-3 -7 0
6 11 0
-13 4 0
-11 4 0
-1 -8 0
1 -11 0
-1 9 0
13 5 0
-2 -10 0
3 7 0
-8 13 0
-4 1 0
6 9 0
-11 4 0
8 -6 0
7 10 0
-7 -3 0
7 2 0
-13 7 0
-13 -4 0
-8 9 0
7 -6 0
-10 12 0
7 -3 0
6 -13 0
6 7 0
-12 -2 0
-5 -3 0
-2 15 0
1 6 0
2 14 0
