c PROBLEM_015_090_33  vars=15  clausulas=90  k=2
p cnf 15 90
-10 7 0
-11 -6 0
1 13 0
-15 14 0
14 7 0
-13 12 0
5 12 0
10 -5 0
-7 -14 0
-10 -1 0
-6 -4 0
5 6 0
7 -13 0
-11 10 0
-12 13 0
3 4 0
-13 12 0
7 15 0
-8 14 0
15 -3 0
9 4 0
14 -5 0
2 1 0
4 -3 0
-9 -2 0
-4 -3 0
12 -6 0
-1 -3 0
-6 -14 0
14 6 0
-5 -14 0
7 13 0
-12 -4 0
-13 5 0
-13 5 0
-7 10 0
15 10 0
-10 5 0
2 3 0
13 2 0
-7 12 0
-4 6 0
-10 -7 0
6 -3 0
-12 15 0
15 6 0
4 15 0
8 -5 0
-6 11 0
6 8 0
10 -4 0
6 12 0
-5 3 0
5 15 0
-2 7 0
10 3 0
-2 -13 0
-10 4 0
3 -10 0
3 -5 0
-3 5 0
14 1 0
-5 -7 0
-1 -2 0
12 15 0
-9 -8 0
-13 -8 0
-4 7 0
10 1 0
-3 7 0
-11 10 0
14 -7 0
3 -1 0
8 5 0
-8 -12 0
11 -14 0
3 14 0
-1 13 0
-13 6 0
3 5 0
5 12 0
1 13 0
-13 -8 0
-1 13 0
-1 -6 0
-8 -1 0
-4 5 0
8 -2 0
10 -4 0
-9 -4 0
