c PROBLEM_015_090_10  vars=15  clausulas=90  k=2
p cnf 15 90
1 -15 0
10 -8 0
8 -4 0
14 -9 0
12 -4 0
-5 14 0
-15 -1 0
11 8 0
-10 11 0
-12 -10 0
-8 7 0
-7 12 0
-2 3 0
-4 5 0
-11 -12 0
8 2 0
-14 6 0
12 11 0
-2 14 0
6 -4 0
-3 -11 0
1 4 0
5 9 0
4 15 0
-3 -15 0
-12 -15 0
-15 -2 0
-13 -6 0
10 -9 0
7 -10 0
13 2 0
7 13 0
7 1 0
-6 12 0
-14 -1 0
2 4 0
13 -9 0
-9 -3 0
1 2 0
11 7 0
3 -1 0
11 -7 0
-6 -2 0
4 5 0
-5 -9 0
14 8 0
10 2 0
-4 -11 0
8 10 0
-7 -1 0
14 12 0
6 15 0
-14 10 0
-13 1 0
15 14 0
-8 -1 0
14 -11 0
-8 15 0
-3 -7 0
3 4 0
-14 2 0
-10 -4 0
10 12 0
14 -7 0
-10 7 0
-13 -2 0
11 -12 0
-9 6 0
15 14 0
-9 3 0
-13 -3 0
-2 -10 0
12 -2 0
-8 -14 0
5 -13 0
-3 8 0
-15 9 0
-3 11 0
-3 10 0
-11 -15 0
-10 -4 0
12 -7 0
11 12 0
-4 -2 0
5 -4 0
12 9 0
8 -11 0
-15 1 0
4 -7 0
-9 5 0
