c PROBLEM_015_090_12  vars=15  clausulas=90  k=2
p cnf 15 90
14 -12 0
-11 -2 0
2 -15 0
-7 -6 0
3 -12 0
4 -7 0
-11 1 0
3 2 0
4 13 0
-8 -9 0
-6 4 0
7 9 0
1 -3 0
11 -13 0
-3 -15 0
-13 -4 0
12 4 0
7 -6 0
12 -14 0
-12 -5 0
12 -15 0
9 -3 0
-13 12 0
-1 10 0
7 3 0
7 -15 0
10 -9 0
12 -15 0
-15 -5 0
5 9 0
2 3 0
-5 -7 0
4 -3 0
-8 -9 0
-11 13 0
-4 -8 0
-6 8 0
4 -9 0
3 -14 0
2 4 0
-1 9 0
-14 -2 0
-10 -11 0
15 8 0
-15 -14 0
-4 -1 0
8 -12 0
13 5 0
-13 10 0
11 -3 0
1 -10 0
-5 -4 0
-4 -5 0
-8 -4 0
14 -7 0
11 3 0
12 2 0
-14 1 0
-6 -7 0
7 9 0
-13 6 0
3 -8 0
15 9 0
-15 11 0
-15 -12 0
-1 14 0
-10 8 0
6 -13 0
-7 2 0
-2 -11 0
-1 10 0
-7 15 0
-5 14 0
7 -1 0
-9 -3 0
9 14 0
8 -15 0
-1 13 0
-13 4 0
2 -10 0
-5 -12 0
6 12 0
6 5 0
14 4 0
8 10 0
4 3 0
-3 -5 0
-14 -3 0
-2 13 0
7 15 0
