c PROBLEM_015_090_35  vars=15  clausulas=90  k=2
p cnf 15 90
-3 13 0
8 6 0
4 2 0
8 -11 0
-12 13 0
5 -2 0
2 -4 0
6 -12 0
12 5 0
13 -5 0
-10 3 0
-3 -1 0
14 -3 0
11 2 0
11 5 0
12 -5 0
-5 3 0
3 1 0
1 11 0
10 -2 0
6 7 0
-2 -14 0
-13 15 0
-2 -11 0
3 -4 0
1 -7 0
15 11 0
-3 -5 0
-7 3 0
-11 13 0
-7 -6 0
11 -6 0
3 -12 0
-11 5 0
11 -7 0
-15 4 0
2 8 0
6 13 0
-15 -13 0
3 7 0
-14 10 0
14 2 0
-1 11 0
-4 13 0
-5 8 0
-3 2 0
-6 1 0
2 10 0
-8 12 0
-14 -5 0
11 -9 0
-5 -10 0
5 3 0
-7 12 0
10 -3 0
3 -9 0
-6 -4 0
7 -15 0
-10 -7 0
6 -4 0
-9 15 0
2 -10 0
8 12 0
-13 -5 0
15 -10 0
-14 -7 0
1 14 0
-6 12 0
10 4 0
-8 11 0
10 -5 0
-5 2 0
10 8 0
-15 -9 0
-5 -3 0
-10 -9 0
-8 2 0
-14 8 0
6 -10 0
-12 -2 0
10 -13 0
7 -5 0
4 2 0
3 4 0
6 3 0
9 2 0
-8 -12 0
10 5 0
-3 4 0
-8 6 0
