c PROBLEM_015_090_47  vars=15  clausulas=90  k=2
p cnf 15 90
5 13 0
-3 -7 0
-14 11 0
11 -3 0
-13 -2 0
10 1 0
2 -12 0
4 10 0
1 5 0
9 6 0
-9 -6 0
4 -5 0
9 -6 0
-12 -15 0
8 1 0
2 15 0
-12 -13 0
1 -14 0
-6 -8 0
-10 -9 0
-9 7 0
4 -2 0
11 8 0
-13 -3 0
-9 -12 0
12 -3 0
-2 8 0
13 -12 0
-14 10 0
-6 3 0
-15 9 0
11 5 0
13 -7 0
9 3 0
-11 -8 0
-7 5 0
-10 1 0
5 6 0
-4 8 0
-2 9 0
11 1 0
7 13 0
-14 4 0
6 4 0
13 -4 0
-3 6 0
10 -6 0
1 10 0
15 -13 0
-15 -10 0
8 12 0
-8 -3 0
15 -2 0
-10 -4 0
1 -13 0
3 -10 0
7 -12 0
-8 7 0
2 -1 0
-9 15 0
-10 8 0
-1 -8 0
13 3 0
-4 -8 0
7 -14 0
-15 10 0
-14 6 0
13 3 0
4 10 0
-6 4 0
9 -12 0
-13 7 0
12 -14 0
-15 -11 0
4 1 0
11 -4 0
13 -6 0
12 11 0
-2 7 0
-11 1 0
13 15 0
9 6 0
8 13 0
-14 9 0
-5 -6 0
-7 -10 0
-9 7 0
-15 -7 0
12 13 0
-11 8 0
