c PROBLEM_015_090_31  vars=15  clausulas=90  k=2
p cnf 15 90
10 11 0
-11 7 0
4 -13 0
-12 -8 0
-5 11 0
-6 -7 0
7 -3 0
4 -6 0
14 -7 0
14 -5 0
-8 -3 0
15 -4 0
2 14 0
10 -15 0
-9 14 0
4 1 0
-8 4 0
9 -10 0
12 11 0
7 6 0
-7 -9 0
2 1 0
3 2 0
8 10 0
5 14 0
5 12 0
11 6 0
1 10 0
-15 9 0
8 7 0
-6 -4 0
7 12 0
-13 10 0
1 10 0
-12 -4 0
12 -10 0
-13 -4 0
2 13 0
11 15 0
-5 -9 0
6 2 0
2 -13 0
9 3 0
4 -9 0
-6 10 0
11 -3 0
-14 -2 0
2 -14 0
-2 -3 0
-12 6 0
4 -13 0
5 -8 0
-12 -5 0
8 -15 0
-8 -7 0
10 -6 0
-10 -6 0
4 9 0
-10 14 0
-4 2 0
-2 3 0
11 -12 0
-7 -11 0
15 13 0
10 -13 0
-1 10 0
-13 -12 0
12 -7 0
-7 -1 0
-1 -9 0
13 -3 0
10 -4 0
-2 -8 0
-10 -8 0
-3 10 0
-14 -13 0
15 8 0
-2 13 0
3 -7 0
2 15 0
13 -4 0
3 -8 0
7 -14 0
-6 -13 0
2 -5 0
7 -11 0
-10 -9 0
-7 1 0
-1 6 0
-9 15 0
