c PROBLEM_015_090_26  vars=15  clausulas=90  k=2
p cnf 15 90
13 11 0
5 -9 0
9 -4 0
-13 9 0
-13 1 0
14 9 0
-13 -11 0
-12 2 0
15 -8 0
15 5 0
6 3 0
-7 -6 0
-13 14 0
9 -2 0
-12 -5 0
-3 -2 0
6 -15 0
14 -7 0
4 6 0
-3 -1 0
15 13 0
-7 -3 0
15 -7 0
5 -1 0
5 -7 0
-15 1 0
-14 10 0
6 -2 0
12 6 0
-14 -2 0
-12 2 0
3 -11 0
-14 -9 0
12 -1 0
-2 -1 0
12 -9 0
7 -2 0
11 -3 0
-5 3 0
-6 3 0
-7 -13 0
12 -2 0
4 6 0
15 -11 0
9 3 0
-9 -7 0
-11 -2 0
-15 -3 0
8 -12 0
-7 -9 0
9 5 0
7 3 0
7 11 0
3 9 0
-11 10 0
-7 1 0
-13 10 0
-1 -12 0
-10 14 0
-13 8 0
8 -7 0
-6 15 0
-5 7 0
14 13 0
-2 7 0
14 10 0
1 15 0
2 13 0
-6 2 0
-1 3 0
-11 13 0
6 -10 0
-4 1 0
-15 -11 0
3 15 0
-8 -5 0
-2 -8 0
-5 7 0
-9 14 0
-7 -6 0
13 -15 0
-13 -5 0
2 -14 0
-15 -1 0
-3 -13 0
-1 10 0
13 9 0
-10 -4 0
-4 -12 0
15 -13 0
