c PROBLEM_015_090_22  vars=15  clausulas=90  k=2
p cnf 15 90
-10 -2 0
-9 14 0
-14 -3 0
-11 10 0
-3 -12 0
15 -2 0
-14 -9 0
14 -15 0
3 8 0
15 -9 0
-14 5 0
3 -8 0
7 -13 0
-1 -8 0
10 -9 0
15 4 0
15 -12 0
5 11 0
-3 1 0
-12 -10 0
-2 -14 0
11 -8 0
-1 11 0
-9 3 0
10 -6 0
-5 -9 0
15 -4 0
12 -6 0
15 -5 0
14 -11 0
-8 4 0
15 3 0
5 14 0
10 3 0
6 -7 0
5 -1 0
-10 1 0
-12 5 0
9 -2 0
13 10 0
8 1 0
-3 10 0
7 11 0
-11 -14 0
7 -10 0
-2 -8 0
-12 1 0
7 -13 0
3 -9 0
13 -8 0
11 -2 0
-15 14 0
5 -8 0
9 -6 0
-15 -12 0
11 2 0
-7 -9 0
13 14 0
-14 -4 0
3 -1 0
-7 2 0
-11 -8 0
-8 -12 0
2 12 0
15 14 0
3 12 0
-10 14 0
-8 -5 0
13 -15 0
6 -7 0
-3 -8 0
-11 -15 0
4 8 0
7 8 0
-7 10 0
-13 -3 0
4 9 0
5 12 0
9 -14 0
-10 -15 0
-9 13 0
4 9 0
-11 6 0
10 5 0
10 1 0
12 11 0
10 15 0
-2 7 0
-14 11 0
-9 -7 0
