c PROBLEM_015_090_02  vars=15  clausulas=90  k=2
p cnf 15 90
5 7 0
-11 -10 0
-1 -5 0
12 -8 0
-12 1 0
1 2 0
14 -2 0
5 6 0
12 5 0
8 14 0
8 11 0
-11 -13 0
11 6 0
-8 12 0
-10 -7 0
1 7 0
15 -2 0
10 14 0
8 -15 0
2 -11 0
4 -8 0
-3 -5 0
-13 6 0
-6 11 0
-3 -6 0
7 -2 0
13 -4 0
-13 -2 0
-4 -8 0
9 -15 0
10 -2 0
-4 -12 0
13 5 0
6 3 0
-12 -6 0
-12 13 0
-15 3 0
2 -11 0
-8 15 0
-12 1 0
-14 12 0
15 -5 0
4 -2 0
7 9 0
11 8 0
6 -13 0
-9 -14 0
-10 -5 0
-6 -13 0
-4 -7 0
-8 -10 0
-9 15 0
-6 -11 0
12 15 0
10 14 0
-12 -4 0
-11 12 0
-12 -2 0
8 -3 0
13 -1 0
-7 3 0
11 4 0
-7 -11 0
-2 10 0
10 14 0
-4 12 0
9 14 0
12 -4 0
14 15 0
-15 5 0
-11 10 0
14 -5 0
15 -5 0
2 5 0
-5 -2 0
-15 10 0
-15 13 0
-3 -5 0
8 3 0
-10 -1 0
-8 14 0
5 2 0
5 -11 0
-12 10 0
-8 -12 0
13 -4 0
7 6 0
-12 -2 0
-15 -11 0
6 9 0
