c PROBLEM_015_090_29  vars=15  clausulas=90  k=2
p cnf 15 90
-9 -12 0
5 -9 0
15 9 0
4 8 0
10 -9 0
3 1 0
-3 13 0
6 -14 0
-9 -15 0
-7 2 0
-11 1 0
-14 2 0
-10 -15 0
-15 9 0
-1 4 0
-3 5 0
-12 13 0
-7 -12 0
5 10 0
8 2 0
1 4 0
13 6 0
-4 15 0
3 14 0
2 -11 0
10 -4 0
-11 -2 0
-2 1 0
-7 15 0
2 -15 0
-8 -2 0
1 13 0
7 10 0
2 10 0
2 -7 0
14 12 0
11 13 0
-11 8 0
-6 -9 0
-10 -4 0
-3 -12 0
-1 -13 0
13 6 0
-1 15 0
15 -6 0
15 2 0
-14 -10 0
-5 -6 0
5 3 0
-14 -4 0
14 5 0
11 3 0
-11 -3 0
14 10 0
13 -8 0
-14 -13 0
-5 3 0
-10 -14 0
-9 -5 0
-1 -14 0
6 -8 0
-9 3 0
-15 -6 0
-12 -13 0
8 -7 0
12 -9 0
2 -14 0
15 -7 0
12 -1 0
3 -11 0
15 -3 0
11 -12 0
14 -12 0
-14 -10 0
1 2 0
-10 -12 0
14 -1 0
-7 12 0
-8 3 0
15 5 0
-1 -10 0
8 -1 0
11 12 0
-4 -3 0
12 -5 0
-2 1 0
-14 -6 0
14 -12 0
-13 -2 0
-8 11 0
