c PROBLEM_015_090_04  vars=15  clausulas=90  k=2
p cnf 15 90
14 12 0
-13 -9 0
9 -10 0
6 2 0
-3 -7 0
9 10 0
10 8 0
-6 -12 0
-1 -4 0
-2 -6 0
-14 -2 0
-15 -2 0
-6 9 0
14 13 0
4 -13 0
-7 9 0
-8 13 0
-6 8 0
-15 -4 0
-5 -7 0
-10 -7 0
7 15 0
1 -9 0
15 9 0
8 -13 0
10 -13 0
2 -9 0
-3 -13 0
10 15 0
-7 -3 0
-11 -8 0
-8 -13 0
-12 10 0
-14 8 0
1 3 0
-3 14 0
9 13 0
7 10 0
8 11 0
7 -8 0
11 8 0
1 12 0
9 8 0
1 4 0
13 1 0
3 13 0
-4 14 0
-3 14 0
9 15 0
11 2 0
-3 -15 0
4 -5 0
-10 -7 0
1 -11 0
-6 4 0
7 -5 0
-13 -5 0
3 -12 0
-13 -7 0
-2 -6 0
15 -4 0
5 1 0
13 2 0
-9 7 0
-6 -12 0
-14 1 0
13 1 0
-8 -15 0
13 4 0
3 14 0
5 -14 0
14 2 0
8 -12 0
3 6 0
8 11 0
-13 8 0
-9 -11 0
-6 -2 0
-3 2 0
-1 -9 0
-14 -7 0
2 10 0
-10 -3 0
-15 -10 0
-14 -1 0
-9 2 0
-3 10 0
14 -6 0
13 9 0
-10 3 0
