c PROBLEM_015_090_45  vars=15  clausulas=90  k=2
p cnf 15 90
2 7 0
2 -15 0
11 8 0
-6 -11 0
15 -10 0
-3 15 0
-10 -4 0
13 1 0
-10 1 0
12 10 0
-14 3 0
15 6 0
-12 5 0
-11 -12 0
8 -5 0
-8 14 0
14 15 0
-7 -5 0
-8 -4 0
-1 -6 0
1 -4 0
-4 3 0
-11 3 0
-12 4 0
-2 -13 0
-3 -12 0
7 -4 0
-13 9 0
-11 -3 0
7 -4 0
10 2 0
11 12 0
5 -10 0
9 10 0
7 1 0
9 -15 0
-15 -6 0
12 -1 0
1 15 0
5 6 0
-3 -15 0
-14 -10 0
-10 -3 0
9 13 0
7 8 0
-2 -8 0
1 2 0
-10 2 0
-7 11 0
3 13 0
-14 -4 0
15 13 0
6 4 0
1 -2 0
-2 -11 0
13 -5 0
15 13 0
-14 5 0
-8 -13 0
12 10 0
-13 -11 0
-5 -3 0
-6 -5 0
-5 4 0
7 15 0
-7 14 0
4 13 0
15 9 0
15 2 0
5 7 0
-11 -9 0
-15 6 0
-13 7 0
14 7 0
-12 -4 0
-6 11 0
-2 -14 0
-14 8 0
-6 -7 0
-12 -13 0
12 -6 0
3 4 0
-12 -13 0
12 -5 0
7 1 0
-12 7 0
-5 10 0
11 -15 0
-5 13 0
5 -15 0
