c PROBLEM_015_090_28  vars=15  clausulas=90  k=2
p cnf 15 90
-3 -14 0
6 14 0
-12 -8 0
-2 3 0
-9 -7 0
-13 2 0
8 -10 0
10 9 0
-15 -11 0
-14 15 0
10 -5 0
1 -7 0
4 1 0
10 -3 0
9 10 0
14 -6 0
-14 6 0
12 8 0
10 -11 0
12 -14 0
-13 -4 0
6 -1 0
8 11 0
-15 -3 0
14 -13 0
8 9 0
8 -14 0
1 -13 0
13 -7 0
-3 -12 0
-4 -13 0
-13 -12 0
2 3 0
13 11 0
12 -5 0
10 -13 0
2 -13 0
8 -13 0
6 -8 0
-1 13 0
12 -10 0
-3 -8 0
13 9 0
6 11 0
-5 11 0
14 1 0
-10 -13 0
-6 -9 0
9 14 0
-6 10 0
11 12 0
-15 -1 0
-10 5 0
-6 -12 0
15 -5 0
4 1 0
11 13 0
-4 12 0
-15 8 0
3 13 0
-14 2 0
9 -7 0
-1 -13 0
-13 15 0
-6 -15 0
5 -6 0
-11 -6 0
-4 -5 0
-13 14 0
-5 8 0
4 -12 0
-2 -5 0
12 10 0
-6 -11 0
-10 8 0
-4 6 0
3 6 0
7 13 0
11 13 0
-13 -15 0
11 -2 0
6 -2 0
-3 14 0
-8 13 0
-10 -5 0
10 -14 0
5 -7 0
1 -2 0
5 15 0
8 -15 0
