c PROBLEM_015_090_13  vars=15  clausulas=90  k=2
p cnf 15 90
-5 -9 0
8 13 0
-10 -7 0
-5 -13 0
-1 -7 0
6 12 0
5 -6 0
6 5 0
-8 -14 0
-15 10 0
9 -7 0
2 15 0
-12 -4 0
-4 1 0
15 -9 0
14 4 0
-11 -10 0
15 8 0
-3 -10 0
9 10 0
-11 12 0
-12 -11 0
12 -5 0
-13 -2 0
-6 2 0
12 15 0
-9 -3 0
3 11 0
13 5 0
10 -2 0
-6 -14 0
-14 -8 0
-4 7 0
-1 3 0
-5 -8 0
1 7 0
-3 1 0
-8 -12 0
12 8 0
15 -11 0
-15 -9 0
1 10 0
7 -1 0
13 4 0
-9 -6 0
-15 2 0
-5 15 0
-9 -2 0
9 7 0
11 13 0
-8 11 0
7 -9 0
-12 -6 0
-1 -8 0
-4 5 0
10 -8 0
-12 7 0
15 -4 0
1 -5 0
14 4 0
-2 -8 0
5 -10 0
10 -11 0
-2 -10 0
-6 10 0
7 -1 0
5 1 0
-14 -2 0
12 6 0
15 -8 0
1 -3 0
-4 -14 0
-5 8 0
3 15 0
-11 -2 0
-15 -4 0
10 -4 0
3 7 0
-3 7 0
-14 -1 0
-2 -9 0
-3 -4 0
-6 14 0
12 4 0
4 11 0
15 7 0
12 9 0
2 4 0
-4 3 0
6 -3 0
