c PROBLEM_015_090_49  vars=15  clausulas=90  k=2
p cnf 15 90
-4 -1 0
9 10 0
15 8 0
6 15 0
12 -3 0
-1 -7 0
-5 -6 0
6 -11 0
-12 -8 0
1 4 0
-1 3 0
15 -1 0
-8 9 0
-9 -6 0
3 1 0
8 -15 0
-4 -15 0
-1 -13 0
-1 2 0
3 10 0
1 -9 0
11 -5 0
-11 2 0
-4 -11 0
-2 -13 0
15 -4 0
4 14 0
-13 -9 0
1 -15 0
-14 4 0
4 -11 0
14 7 0
-8 -7 0
13 -10 0
1 7 0
1 -10 0
2 -6 0
-13 -3 0
1 -9 0
10 -8 0
11 5 0
7 11 0
-9 -10 0
7 6 0
11 1 0
15 11 0
13 2 0
-2 15 0
-9 5 0
-3 13 0
2 -10 0
14 12 0
-4 14 0
-15 5 0
15 -6 0
-11 10 0
-2 4 0
-14 -2 0
-15 -12 0
-15 8 0
4 12 0
-13 -4 0
-4 1 0
5 11 0
11 15 0
-3 10 0
10 15 0
7 -11 0
-13 -1 0
12 -5 0
13 -12 0
8 3 0
-5 12 0
-13 -7 0
5 11 0
-6 12 0
-14 6 0
-3 -13 0
-8 -7 0
9 14 0
15 -14 0
10 15 0
5 -4 0
10 15 0
15 11 0
3 4 0
3 -10 0
14 6 0
6 -15 0
14 8 0
