c PROBLEM_080_080_32  vars=80  clausulas=80  k=2
p cnf 80 80
60 -41 0
-35 46 0
36 72 0
-21 9 0
-13 22 0
-5 -77 0
-74 22 0
66 -64 0
-62 27 0
17 -71 0
-21 79 0
-39 15 0
-23 -72 0
12 2 0
-7 28 0
-30 -20 0
-51 63 0
-49 8 0
-16 -24 0
10 11 0
-20 51 0
-44 -42 0
25 -37 0
-48 -57 0
-68 -7 0
-53 40 0
-47 64 0
6 72 0
58 48 0
-33 -43 0
-29 -1 0
5 70 0
-75 37 0
-45 55 0
38 67 0
45 -54 0
52 -75 0
-67 3 0
-56 58 0
19 -72 0
-1 -12 0
-53 -61 0
64 -50 0
33 14 0
-52 -11 0
35 80 0
-59 -78 0
-76 -20 0
4 21 0
61 -17 0
16 -26 0
8 -59 0
47 36 0
-2 -65 0
-56 -69 0
68 -12 0
-3 -73 0
72 -57 0
58 -48 0
-76 1 0
80 -76 0
65 -70 0
-41 -50 0
72 -48 0
12 44 0
-34 -54 0
29 71 0
42 -54 0
-13 -6 0
40 30 0
-31 65 0
24 23 0
-38 35 0
25 12 0
73 32 0
38 3 0
-34 -16 0
-10 -57 0
-60 74 0
18 -34 0
