c PROBLEM_080_080_45  vars=80  clausulas=80  k=2
p cnf 80 80
24 -69 0
70 -9 0
-65 46 0
-38 -52 0
68 35 0
-59 -35 0
-28 -5 0
67 -29 0
25 -4 0
28 22 0
-60 12 0
15 -23 0
68 47 0
17 -68 0
64 33 0
-12 -76 0
10 39 0
-37 29 0
46 -29 0
63 -50 0
38 -44 0
9 5 0
31 52 0
-47 54 0
-32 -12 0
-76 -39 0
56 -77 0
-38 52 0
79 -56 0
-38 -40 0
8 49 0
7 -30 0
-75 78 0
-38 58 0
-43 21 0
62 -75 0
20 -78 0
19 57 0
-72 -66 0
14 63 0
21 -35 0
65 -34 0
-3 -74 0
-64 36 0
50 45 0
73 6 0
-16 -76 0
14 15 0
-69 -44 0
25 -72 0
64 18 0
33 -45 0
-80 43 0
-41 13 0
-46 -75 0
34 -53 0
-58 -11 0
-72 -60 0
61 -53 0
32 -49 0
44 -2 0
42 -32 0
22 -49 0
-70 -25 0
71 18 0
26 32 0
-27 -66 0
-15 51 0
-77 18 0
-71 -18 0
1 48 0
1 55 0
8 -44 0
-32 -15 0
-56 78 0
-77 -41 0
27 -4 0
23 51 0
65 36 0
-59 -7 0
