c PROBLEM_080_080_27  vars=80  clausulas=80  k=2
p cnf 80 80
72 -44 0
42 68 0
-54 77 0
-59 -39 0
-27 -70 0
-3 -21 0
-43 -53 0
49 6 0
10 67 0
-2 47 0
-36 -37 0
8 52 0
20 68 0
49 -21 0
79 72 0
2 -35 0
-53 -11 0
-66 62 0
-47 19 0
27 -2 0
-12 -17 0
-23 -30 0
67 -31 0
-64 -48 0
-57 76 0
-21 -18 0
72 69 0
-62 -61 0
4 28 0
57 -38 0
24 -4 0
-33 63 0
-76 -17 0
-40 58 0
-35 -80 0
-23 -56 0
-38 52 0
-5 55 0
-29 -69 0
39 -5 0
40 2 0
15 -39 0
-64 61 0
-5 14 0
-25 -5 0
24 -80 0
-3 -1 0
49 13 0
40 33 0
-54 73 0
61 -10 0
-39 41 0
-12 -32 0
-10 -78 0
44 26 0
-75 5 0
48 -51 0
70 -74 0
79 -45 0
17 -3 0
36 46 0
59 30 0
-34 30 0
32 42 0
78 -45 0
-16 -33 0
-71 -32 0
-22 -11 0
-60 -7 0
50 29 0
-70 -25 0
-16 27 0
46 37 0
40 -75 0
75 -65 0
22 26 0
67 -24 0
-64 -14 0
74 -47 0
75 -9 0
