c PROBLEM_080_080_42  vars=80  clausulas=80  k=2
p cnf 80 80
62 -57 0
67 -54 0
-66 -34 0
-75 20 0
15 6 0
-47 -30 0
-5 47 0
-59 -20 0
11 35 0
21 4 0
-45 52 0
28 -32 0
-58 57 0
62 70 0
-32 -15 0
15 -11 0
11 -45 0
68 3 0
-70 -44 0
-61 -2 0
1 66 0
-11 -14 0
-43 -27 0
29 71 0
-48 -10 0
59 -46 0
67 13 0
39 62 0
47 -80 0
-38 -23 0
-37 -51 0
5 21 0
61 -78 0
-32 -23 0
-30 79 0
-40 -32 0
79 -53 0
-64 19 0
58 5 0
60 31 0
24 -10 0
48 -43 0
55 36 0
50 63 0
-26 -69 0
-70 63 0
39 -71 0
-65 -6 0
-30 -74 0
41 -28 0
-56 69 0
-63 -44 0
38 32 0
-12 31 0
-22 -50 0
32 -80 0
-73 2 0
19 17 0
-1 33 0
42 77 0
-74 34 0
72 -76 0
60 -61 0
-21 38 0
-28 -27 0
75 60 0
9 -43 0
8 -10 0
-1 50 0
22 51 0
49 -14 0
-5 -1 0
54 -28 0
7 77 0
29 -43 0
-7 46 0
76 -34 0
-17 -16 0
12 -25 0
-18 -22 0
