c PROBLEM_080_080_11  vars=80  clausulas=80  k=2
p cnf 80 80
-40 -32 0
-48 -35 0
-69 -73 0
41 -63 0
-37 -14 0
30 46 0
-13 18 0
67 42 0
61 25 0
12 3 0
-13 -58 0
65 73 0
-39 -58 0
-16 57 0
-28 -63 0
69 -59 0
30 -77 0
-37 -30 0
-66 63 0
-36 52 0
-20 -22 0
-79 11 0
-50 74 0
-46 -68 0
75 -57 0
20 16 0
19 56 0
16 -62 0
-63 -54 0
-61 -69 0
70 15 0
-36 66 0
62 8 0
1 -49 0
77 -69 0
76 -51 0
-58 -53 0
-15 60 0
17 -49 0
-2 -70 0
5 -30 0
-24 -64 0
-9 -61 0
13 -58 0
-43 73 0
-44 62 0
4 75 0
17 -52 0
26 -21 0
-5 32 0
6 -27 0
-45 43 0
-10 -49 0
60 -29 0
-47 -70 0
-58 -20 0
73 23 0
-34 11 0
-45 40 0
-61 -32 0
38 -37 0
-10 -80 0
5 74 0
-61 78 0
-12 -56 0
-41 -68 0
37 -33 0
53 38 0
33 -14 0
-18 -55 0
-5 -56 0
-25 -72 0
-1 9 0
79 -78 0
53 -33 0
-8 76 0
-7 31 0
43 52 0
-60 71 0
5 -64 0
