c PROBLEM_080_080_10  vars=80  clausulas=80  k=2
p cnf 80 80
25 13 0
-35 13 0
-74 -37 0
74 -77 0
-42 -36 0
19 -49 0
-80 14 0
-31 -20 0
-70 -5 0
37 15 0
4 7 0
-77 -50 0
-27 35 0
51 -48 0
24 41 0
-61 39 0
-16 -67 0
-11 73 0
-78 -38 0
41 -43 0
6 -75 0
15 78 0
-34 -26 0
-70 7 0
19 -39 0
-31 -46 0
9 59 0
50 -23 0
-45 53 0
-76 13 0
-40 -58 0
-21 -30 0
79 11 0
57 56 0
1 -18 0
-80 29 0
35 -60 0
-66 58 0
52 -10 0
-75 -12 0
39 22 0
-64 -25 0
46 71 0
-54 69 0
-30 24 0
45 -47 0
19 -65 0
-62 -2 0
42 3 0
-10 8 0
4 -12 0
53 -66 0
53 43 0
15 -42 0
-39 28 0
12 -69 0
22 -4 0
56 -58 0
3 -38 0
40 -19 0
-61 44 0
75 32 0
-72 -64 0
29 -63 0
53 39 0
71 -43 0
53 19 0
55 -41 0
65 -33 0
33 16 0
-50 75 0
-21 66 0
2 74 0
50 37 0
29 -57 0
60 -17 0
71 31 0
20 -68 0
17 12 0
-41 69 0
