c PROBLEM_080_080_13  vars=80  clausulas=80  k=2
p cnf 80 80
80 -72 0
-65 -20 0
-76 1 0
38 -22 0
56 25 0
-60 66 0
27 -69 0
79 28 0
40 -36 0
-59 -27 0
41 -5 0
59 52 0
-64 -80 0
-30 37 0
-13 -79 0
-43 32 0
-15 65 0
5 -18 0
27 -53 0
77 -8 0
-44 -34 0
37 2 0
20 58 0
-8 43 0
-12 -9 0
-1 62 0
17 63 0
12 -71 0
-49 75 0
24 -6 0
68 53 0
-55 58 0
-51 3 0
-62 -24 0
-72 22 0
5 -26 0
14 17 0
60 -69 0
72 -21 0
-61 -56 0
75 48 0
38 -44 0
65 -19 0
29 -57 0
-19 70 0
-10 44 0
7 9 0
66 -41 0
29 -64 0
67 35 0
45 31 0
-20 17 0
-71 -10 0
37 9 0
48 -17 0
2 -62 0
59 38 0
-46 62 0
16 42 0
-62 -50 0
32 9 0
-5 12 0
15 55 0
-77 36 0
42 -73 0
-1 -33 0
63 15 0
-4 43 0
11 53 0
-7 66 0
-56 -70 0
54 68 0
53 -77 0
-44 56 0
61 74 0
-23 48 0
65 80 0
-39 7 0
-47 -14 0
78 -4 0
