c PROBLEM_080_080_34  vars=80  clausulas=80  k=2
p cnf 80 80
34 -43 0
1 16 0
45 23 0
75 51 0
38 72 0
78 -72 0
65 75 0
-9 -2 0
73 -38 0
40 -76 0
25 76 0
-66 -72 0
26 -45 0
-80 -30 0
18 2 0
55 17 0
13 4 0
24 27 0
42 -47 0
14 61 0
-19 3 0
-74 -55 0
-35 -55 0
-39 -28 0
20 -4 0
18 -33 0
-43 -30 0
59 -62 0
-27 5 0
-40 -6 0
-11 45 0
29 -17 0
-38 12 0
22 13 0
50 79 0
-52 9 0
-18 -3 0
-38 -44 0
53 61 0
-41 31 0
21 -58 0
71 -75 0
7 78 0
-37 13 0
70 -18 0
63 62 0
-75 -55 0
53 67 0
39 10 0
44 34 0
48 15 0
31 60 0
-46 -27 0
63 -54 0
-40 -52 0
-7 -68 0
9 35 0
-21 28 0
-30 56 0
-50 8 0
-16 -15 0
30 -53 0
-44 46 0
-36 -49 0
-71 -61 0
-19 64 0
41 -9 0
53 -57 0
-36 -61 0
-56 -21 0
-37 -79 0
-32 -70 0
-77 -56 0
40 69 0
19 43 0
-25 -41 0
23 -47 0
16 12 0
-54 -8 0
79 -31 0
