c PROBLEM_080_080_38  vars=80  clausulas=80  k=2
p cnf 80 80
-43 -29 0
17 2 0
71 4 0
-22 31 0
-24 54 0
-47 48 0
-74 -76 0
-22 -75 0
28 -27 0
-3 44 0
25 50 0
8 -9 0
49 32 0
59 -16 0
-41 -79 0
55 16 0
23 68 0
9 25 0
-5 66 0
71 35 0
13 -53 0
-63 56 0
6 -49 0
54 35 0
-8 31 0
19 -39 0
-50 -17 0
45 13 0
-77 69 0
31 -75 0
76 21 0
-29 -16 0
52 -66 0
-4 77 0
-17 -30 0
-75 -1 0
-28 52 0
65 -13 0
24 -73 0
42 61 0
-80 62 0
34 -60 0
8 -64 0
-51 36 0
-21 38 0
37 -78 0
6 11 0
-24 70 0
-8 -51 0
-78 73 0
-33 -58 0
37 -65 0
44 -76 0
31 -35 0
26 71 0
-36 43 0
-46 10 0
10 37 0
-41 -12 0
-80 -24 0
66 38 0
-59 63 0
-27 3 0
-49 -48 0
20 -34 0
24 -15 0
-57 -40 0
-7 -27 0
-57 37 0
34 -47 0
-67 18 0
-14 -2 0
36 9 0
-19 -35 0
58 -5 0
-78 25 0
28 31 0
-78 -46 0
-72 79 0
-15 30 0
