c PROBLEM_080_080_02  vars=80  clausulas=80  k=2
p cnf 80 80
34 -14 0
-58 -21 0
6 20 0
-71 9 0
50 58 0
-22 -2 0
-75 -28 0
-15 -1 0
54 28 0
-24 8 0
29 53 0
-38 -47 0
1 51 0
-13 37 0
-43 32 0
-51 1 0
6 -62 0
-60 68 0
-78 56 0
65 -39 0
39 -4 0
-18 -55 0
48 17 0
14 30 0
35 -80 0
60 -2 0
-55 52 0
19 22 0
-76 -66 0
-53 66 0
11 -44 0
-52 -34 0
-32 -27 0
78 -4 0
78 -8 0
74 53 0
-9 73 0
-12 -68 0
76 73 0
31 29 0
-6 -44 0
12 -25 0
3 5 0
-7 77 0
40 7 0
46 -57 0
5 -22 0
-65 -78 0
-74 -61 0
23 44 0
64 42 0
-54 -30 0
-70 -77 0
67 11 0
-43 -17 0
-20 -12 0
-66 -20 0
-76 49 0
10 -6 0
46 -71 0
51 12 0
37 28 0
59 -45 0
26 -2 0
-23 21 0
63 -33 0
-60 -69 0
-32 74 0
-25 -41 0
-56 -44 0
68 49 0
35 -54 0
-64 -52 0
-72 79 0
16 80 0
-51 50 0
70 -26 0
-33 12 0
12 36 0
-17 15 0
