c PROBLEM_080_080_29  vars=80  clausulas=80  k=2
p cnf 80 80
-27 1 0
80 7 0
-36 32 0
-63 51 0
71 -64 0
-39 7 0
-29 61 0
42 -56 0
-56 -59 0
-50 -63 0
8 -19 0
-58 -60 0
-37 -2 0
-57 -79 0
-25 78 0
46 64 0
-11 40 0
35 59 0
72 79 0
-16 27 0
-31 62 0
-34 -4 0
47 -11 0
-66 63 0
-77 30 0
-71 -6 0
2 59 0
74 -53 0
61 -13 0
27 8 0
77 17 0
-26 9 0
13 -41 0
-21 -25 0
-80 45 0
52 -1 0
5 -63 0
54 48 0
76 -2 0
-38 36 0
-10 -12 0
24 11 0
-22 50 0
-11 13 0
28 8 0
-74 20 0
47 27 0
-67 -54 0
70 -27 0
-22 76 0
-44 -3 0
-54 3 0
33 57 0
21 58 0
-23 48 0
-15 55 0
-68 23 0
-65 5 0
-43 14 0
1 54 0
-10 49 0
44 -62 0
4 -57 0
-15 37 0
15 47 0
-67 -3 0
76 34 0
-59 -19 0
-52 18 0
49 -66 0
-65 59 0
80 55 0
69 -45 0
-24 -75 0
44 18 0
-47 6 0
27 30 0
4 13 0
-21 -71 0
-73 78 0
