c PROBLEM_080_080_35  vars=80  clausulas=80  k=2
p cnf 80 80
47 -62 0
45 -11 0
-37 21 0
-46 -5 0
76 -38 0
14 -63 0
-64 17 0
-61 80 0
-17 -36 0
-56 -9 0
-77 65 0
-58 77 0
22 38 0
69 -18 0
75 -48 0
4 -63 0
40 39 0
-38 59 0
74 -54 0
9 50 0
-40 28 0
19 9 0
-50 -53 0
-48 23 0
25 44 0
29 72 0
52 47 0
-71 65 0
-43 42 0
-67 -62 0
-2 -30 0
-41 -44 0
71 5 0
-32 -30 0
-45 -78 0
-1 -61 0
-36 -34 0
-27 -65 0
-45 -5 0
66 20 0
-74 -4 0
29 18 0
-63 -33 0
-26 7 0
35 -3 0
50 -61 0
-11 35 0
52 54 0
-39 33 0
8 68 0
63 -77 0
54 6 0
-78 66 0
42 -31 0
24 -5 0
15 -46 0
-16 -8 0
65 32 0
15 -1 0
-51 -58 0
-41 -67 0
-11 73 0
-52 59 0
-34 70 0
-79 59 0
13 -62 0
-6 31 0
-26 -12 0
-50 1 0
45 79 0
65 -71 0
-10 57 0
49 -73 0
51 -52 0
40 55 0
56 64 0
-28 -29 0
-53 60 0
12 1 0
-69 5 0
