c PROBLEM_080_080_20  vars=80  clausulas=80  k=2
p cnf 80 80
-27 79 0
31 -14 0
46 -26 0
-12 10 0
-36 71 0
65 33 0
-49 29 0
20 -16 0
-2 56 0
1 64 0
6 39 0
-18 -16 0
-52 -1 0
58 76 0
72 60 0
-7 75 0
35 -54 0
-11 -50 0
57 -48 0
-55 -73 0
-36 40 0
-19 -45 0
15 2 0
76 -31 0
21 53 0
13 17 0
-26 30 0
4 79 0
78 56 0
-25 67 0
64 67 0
74 79 0
-60 10 0
-26 66 0
-67 11 0
18 -41 0
16 68 0
-15 7 0
-40 49 0
-13 -50 0
50 67 0
-49 -70 0
76 80 0
-51 -53 0
62 -25 0
-68 -38 0
1 -43 0
-35 3 0
21 76 0
-61 43 0
-28 41 0
-80 -55 0
23 42 0
31 -77 0
-37 -33 0
6 -32 0
20 -17 0
-76 37 0
57 -46 0
-62 -39 0
-44 -17 0
47 -23 0
-44 37 0
-61 39 0
-19 -9 0
-24 11 0
-9 14 0
67 -5 0
-78 21 0
29 27 0
27 -63 0
59 20 0
-22 69 0
49 51 0
17 -40 0
-9 74 0
-34 2 0
-29 69 0
46 8 0
11 -56 0
