c PROBLEM_080_080_18  vars=80  clausulas=80  k=2
p cnf 80 80
-47 32 0
-42 -48 0
34 -13 0
-7 -41 0
-47 -23 0
-68 -29 0
31 58 0
-61 12 0
-60 16 0
-75 62 0
-7 65 0
-78 -47 0
53 76 0
-41 62 0
20 76 0
-21 78 0
35 67 0
-72 -60 0
-35 59 0
75 -79 0
-61 -67 0
34 -71 0
70 -36 0
64 -19 0
-40 56 0
-48 -38 0
78 -6 0
-31 -24 0
-11 -71 0
-80 28 0
78 71 0
-16 1 0
8 9 0
16 -25 0
34 -5 0
77 3 0
-21 68 0
-44 10 0
46 57 0
-78 -55 0
62 -72 0
-73 62 0
58 -14 0
57 64 0
29 74 0
-40 -28 0
64 -56 0
69 -77 0
60 55 0
48 68 0
-56 -80 0
-35 -21 0
13 -34 0
60 44 0
50 -42 0
-54 25 0
-39 -43 0
-49 3 0
-8 3 0
39 -30 0
-15 -80 0
-78 30 0
51 -22 0
-67 3 0
4 -63 0
58 -12 0
19 18 0
-54 -19 0
55 37 0
-27 56 0
72 35 0
-52 -66 0
45 -2 0
44 26 0
76 4 0
-70 54 0
-80 1 0
-17 6 0
-33 46 0
-68 12 0
