c PROBLEM_080_080_01  vars=80  clausulas=80  k=2
p cnf 80 80
-65 44 0
21 -15 0
-22 21 0
-69 22 0
72 -47 0
32 35 0
1 -4 0
-20 48 0
-10 -79 0
-71 -63 0
-14 76 0
-41 -80 0
2 -24 0
11 19 0
-2 36 0
-4 66 0
-60 -80 0
-13 3 0
12 -17 0
-30 -51 0
42 20 0
3 9 0
38 -10 0
-11 -50 0
-36 -28 0
-62 20 0
69 62 0
25 31 0
-48 -74 0
-66 -32 0
-8 73 0
66 -65 0
-28 23 0
7 18 0
-61 41 0
33 -27 0
-29 72 0
-36 -57 0
23 33 0
-1 9 0
47 29 0
57 6 0
59 73 0
-32 16 0
-80 26 0
39 -12 0
-33 69 0
-76 -34 0
-2 14 0
-42 44 0
-43 -13 0
16 2 0
-50 -15 0
-12 -44 0
-77 -72 0
47 46 0
-78 45 0
55 -58 0
-78 -59 0
26 -54 0
-50 53 0
-68 15 0
-40 35 0
-64 -70 0
-77 -4 0
79 -47 0
51 73 0
-46 -5 0
-75 -24 0
-79 -34 0
-43 41 0
61 2 0
-63 -60 0
52 -48 0
1 17 0
60 -67 0
49 -51 0
-37 -39 0
75 -28 0
-56 -5 0
